Fe32 O48
1.0
   8.6397949999999994   -0.3421320000000000   -0.1311550000000000
  -0.2945359999999990   10.9310700000000001    0.0843600000000000
  -0.1757610000000000    0.0405989999999990   10.3734339999999996
Fe O
32 48
direct
   0.6369720000000000    0.9314370000000000    0.0495160000000000 Fe
   0.3006220000000000    0.9282600000000001    0.5286410000000000 Fe
   0.9426430000000000    0.7596020000000000    0.5950050000000000 Fe
   0.5367940000000000    0.1760690000000000    0.5446550000000000 Fe
   0.6780060000000000    0.3832250000000000    0.2325410000000000 Fe
   0.2875400000000000    0.4251560000000000    0.5695749999999991 Fe
   0.4173349999999990    0.1935200000000000    0.7918100000000000 Fe
   0.6166480000000000    0.5966509999999990    0.0493780000000000 Fe
   0.0680269999999990    0.0483300000000000    0.6642939999999991 Fe
   0.3478590000000000    0.4262470000000000    0.9022650000000000 Fe
   0.9258369999999990    0.0817960000000000    0.0728490000000000 Fe
   0.7241590000000000    0.9934580000000000    0.8052389999999990 Fe
   0.6379969999999990    0.5387919999999990    0.7856179999999990 Fe
   0.1714989999999990    0.1912230000000000    0.3655339999999990 Fe
   0.3020029999999990    0.4774830000000000    0.2442020000000000 Fe
   0.3015100000000000    0.9678979999999990    0.9192900000000001 Fe
   0.2298220000000000    0.2068940000000000    0.0314460000000000 Fe
   0.6873110000000000    0.4727900000000000    0.5344320000000000 Fe
   0.4160210000000000    0.6826840000000000    0.4987970000000000 Fe
   0.0167930000000000    0.4379139999999990    0.0669510000000000 Fe
   0.8048630000000000    0.7978800000000000    0.2743589999999990 Fe
   0.0012900000000000    0.5072240000000000    0.4187950000000000 Fe
   0.1282820000000000    0.7030330000000000    0.2844089999999990 Fe
   0.4673279999999990    0.0944079999999990    0.2700750000000000 Fe
   0.7611030000000000    0.2913070000000000    0.9380689999999990 Fe
   0.2387159999999990    0.6644709999999990    0.8561759999999990 Fe
   0.9493469999999991    0.7555240000000000    0.9725659999999990 Fe
   0.8986480000000000    0.2615200000000000    0.6386870000000000 Fe
   0.8356600000000001    0.0685620000000000    0.3608869999999990 Fe
   0.4487800000000000    0.7861589999999991    0.2419770000000000 Fe
   0.0031470000000000    0.5118509999999999    0.7417670000000000 Fe
   0.6573220000000000    0.8833380000000000    0.5233860000000000 Fe
   0.7100949999999990    0.2988400000000001    0.5462810000000000 O
   0.8628190000000000    0.3686419999999990    0.7884840000000000 O
   0.4985940000000000    0.5371610000000000    0.5897820000000000 O
   0.9735300000000001    0.2654760000000000    0.0268659999999990 O
   0.7813059999999999    0.4756800000000000    0.3714530000000000 O
   0.7886510000000000    0.9728070000000000    0.1971870000000000 O
   0.3419510000000000    0.0869200000000000    0.4392820000000000 O
   0.2731440000000000    0.0408180000000000    0.7395140000000000 O
   0.3023320000000000    0.6579880000000000    0.1854470000000000 O
   0.2424319999999990    0.4941219999999991    0.7486729999999990 O
   0.6332280000000000    0.2173820000000000    0.2670800000000000 O
   0.7274160000000000    0.1147219999999990    0.9725330000000000 O
   0.4422750000000000    0.5976119999999990    0.9186519999999990 O
   0.0143039999999990    0.1533110000000000    0.5125379999999990 O
   0.2319760000000000    0.2716490000000000    0.8606940000000000 O
   0.9032640000000000    0.1123550000000000    0.7470500000000001 O
   0.4107490000000000    0.1304820000000000    0.9726110000000000 O
   0.2480600000000000    0.3951220000000000    0.0738200000000000 O
   0.8132020000000000    0.5831210000000000    0.6441319999999990 O
   0.5855250000000000    0.1076500000000000    0.7102750000000000 O
   0.2894140000000000    0.8154969999999990    0.3773060000000000 O
   0.0645070000000000    0.5021840000000000    0.2410320000000000 O
   0.6306459999999990    0.0446210000000000    0.4448240000000000 O
   0.2448500000000000    0.5720310000000000    0.4432919999999990 O
   0.9699369999999990    0.7550220000000000    0.1632680000000000 O
   0.7844460000000000    0.8631740000000000    0.6758280000000000 O
   0.0972980000000000    0.8980870000000000    0.5808960000000000 O
   0.3881989999999990    0.2789850000000000    0.6231760000000000 O
   0.0883559999999990    0.6824650000000000    0.7083100000000001 O
   0.5173660000000000    0.9140360000000000    0.8928490000000000 O
   0.7758140000000000    0.4303380000000000    0.0716970000000000 O
   0.2737720000000000    0.3520330000000000    0.3858890000000000 O
   0.5540710000000000    0.3649810000000000    0.8656570000000000 O
   0.8540430000000000    0.8965839999999990    0.4262400000000000 O
   0.1226339999999990    0.0473730000000000    0.0063260000000000 O
   0.8397469999999990    0.9069419999999990    0.9517019999999990 O
   0.9887849999999990    0.1501070000000000    0.2577760000000000 O
   0.0591120000000000    0.5673290000000000    0.9362969999999990 O
   0.2904980000000000    0.1744170000000000    0.2059639999999990 O
   0.5946520000000000    0.7465640000000000    0.3922420000000000 O
   0.4589860000000000    0.9483919999999991    0.1685490000000000 O
   0.9685920000000000    0.6835660000000000    0.4193260000000000 O
   0.0373110000000000    0.4081760000000000    0.5742720000000000 O
   0.4535679999999990    0.8275819999999990    0.6031520000000000 O
   0.6338429999999990    0.7551040000000000    0.1375500000000000 O
   0.5210040000000000    0.4933349999999990    0.1944270000000000 O
   0.1741059999999990    0.8104040000000000    0.9303150000000000 O
   0.7657539999999990    0.6459490000000000    0.9232389999999990 O
