Fe16 O24
1.0
   4.7329759999999998    6.7371379999999998    0.0000000000000000
  -4.7329759999999998    6.7371379999999998    0.0000000000000000
   0.0000000000000000    6.6861629999999996    6.7377539999999998
Fe O
16 24
direct
   0.5364730000000000    0.4635269999999990    0.0000000000000000 Fe
   0.2497879999999990    0.2465500000000000    0.5401810000000000 Fe
   0.4646210000000000    0.5353789999999991    0.5000000000000000 Fe
   0.7826949999999990    0.2793180000000000    0.7224670000000000 Fe
   0.0423129999999990    0.9576870000000000    0.0000000000000000 Fe
   0.2124950000000000    0.7119360000000000    0.7857740000000000 Fe
   0.2880640000000000    0.7875050000000000    0.2142260000000000 Fe
   0.7206819999999990    0.2173050000000000    0.2775330000000000 Fe
   0.9647770000000000    0.0352230000000000    0.5000000000000000 Fe
   0.7534500000000001    0.7502120000000000    0.4598190000000000 Fe
   0.2483389999999990    0.2444460000000000    0.0438220000000000 Fe
   0.7555539999999999    0.7516609999999990    0.9561780000000000 Fe
   0.5033240000000000    0.9965919999999990    0.2538209999999990 Fe
   0.0034080000000000    0.4966759999999991    0.7461789999999990 Fe
   0.5006600000000000    0.9948730000000000    0.7530270000000000 Fe
   0.0051270000000000    0.4993400000000001    0.2469730000000000 Fe
   0.7611350000000000    0.5414300000000001    0.7156270000000000 O
   0.9947189999999991    0.2228550000000000    0.8022549999999991 O
   0.9571909999999991    0.2705269999999990    0.2481169999999990 O
   0.2720809999999990    0.4968059999999990    0.0284920000000000 O
   0.2209549999999990    0.5380500000000000    0.4859100000000001 O
   0.4619500000000000    0.7790450000000000    0.5140900000000000 O
   0.2766740000000000    0.9527160000000000    0.7472980000000000 O
   0.5025680000000000    0.2686280000000000    0.5261950000000000 O
   0.7748170000000000    0.4550440000000000    0.0275960000000000 O
   0.7771450000000000    0.0052810000000000    0.1977450000000000 O
   0.2636529999999990    0.0402229999999990    0.9854879999999990 O
   0.9597770000000000    0.7363470000000000    0.0145119999999990 O
   0.7313720000000000    0.4974320000000000    0.4738050000000000 O
   0.0478660000000000    0.2587850000000000    0.4836709999999990 O
   0.0063790000000000    0.7697459999999990    0.7061489999999990 O
   0.7294729999999990    0.0428090000000000    0.7518830000000000 O
   0.5031940000000000    0.7279190000000000    0.9715079999999990 O
   0.2302540000000000    0.9936210000000000    0.2938510000000000 O
   0.7412150000000000    0.9521339999999990    0.5163289999999990 O
   0.5446740000000000    0.7573700000000001    0.2149340000000000 O
   0.5449560000000000    0.2251830000000000    0.9724039999999990 O
   0.4585700000000000    0.2388650000000000    0.2843730000000000 O
   0.2426300000000000    0.4553259999999990    0.7850659999999990 O
   0.0472840000000000    0.7233259999999990    0.2527020000000000 O
