NiO337
1.0
       12.5051994324         0.0000000000         0.0000000000
        0.0000000000        12.5051994324         0.0000000000
        0.0000000000         0.0000000000        29.1787986755
   Ni    O
  252  252
Cartesian
     2.084199968         2.084199968         2.084199905
    10.420999465        10.420999465        27.094598770
    10.420999465        10.420999465         2.084199905
     2.084199968         2.084199968        27.094598770
    10.420999465         2.084199968        27.094598770
     2.084199968        10.420999465         2.084199905
     2.084199968        10.420999465        27.094598770
    10.420999465         2.084199968         2.084199905
     2.084199968         4.168399873         4.168399811
    10.420999465         0.000000000         0.000000000
    10.420999465         0.000000000         4.168399811
     2.084199968         4.168399873         0.000000000
    10.420999465         4.168399873         0.000000000
     2.084199968         0.000000000         4.168399811
     2.084199968         0.000000000         0.000000000
    10.420999465         4.168399873         4.168399811
     4.168399873         2.084199968         4.168399811
     0.000000000        10.420999465         0.000000000
     0.000000000        10.420999465         4.168399811
     4.168399873         2.084199968         0.000000000
     0.000000000         2.084199968         0.000000000
     4.168399873        10.420999465         4.168399811
     4.168399873        10.420999465         0.000000000
     0.000000000         2.084199968         4.168399811
     4.168399873         4.168399873         2.084199905
     0.000000000         0.000000000        27.094598770
     0.000000000         0.000000000         2.084199905
     4.168399873         4.168399873        27.094598770
     0.000000000         4.168399873        27.094598770
     4.168399873         0.000000000         2.084199905
     4.168399873         0.000000000        27.094598770
     0.000000000         4.168399873         2.084199905
     2.084199968         2.084199968         6.252599716
    10.420999465        10.420999465        22.926198959
    10.420999465        10.420999465         6.252599716
     2.084199968         2.084199968        22.926198959
    10.420999465         2.084199968        22.926198959
     2.084199968        10.420999465         6.252599716
     2.084199968        10.420999465        22.926198959
    10.420999465         2.084199968         6.252599716
     6.252599716         2.084199968         2.084199968
     6.252599716        10.420999465        27.094598708
     6.252599716        10.420999465         2.084199968
     6.252599716         2.084199968        27.094598708
     2.084199968         6.252599716         2.084199968
    10.420999465         6.252599716        27.094598708
     2.084199968         6.252599716        27.094598708
    10.420999465         6.252599716         2.084199968
     2.084199968         4.168399873         8.336799622
    10.420999465         0.000000000        25.010398865
    10.420999465         0.000000000         8.336799622
     2.084199968         4.168399873        25.010398865
    10.420999465         4.168399873        25.010398865
     2.084199968         0.000000000         8.336799622
     2.084199968         0.000000000        25.010398865
    10.420999465         4.168399873         8.336799622
     6.252599716         4.168399873         4.168399873
     6.252599716         0.000000000         0.000000000
     6.252599716         0.000000000         4.168399873
     6.252599716         4.168399873         0.000000000
     2.084199968         8.336799622         4.168399873
    10.420999465         8.336799622         0.000000000
     2.084199968         8.336799622         0.000000000
    10.420999465         8.336799622         4.168399873
     4.168399873         2.084199968         8.336799622
     0.000000000        10.420999465        25.010398865
     0.000000000        10.420999465         8.336799622
     4.168399873         2.084199968        25.010398865
     0.000000000         2.084199968        25.010398865
     4.168399873        10.420999465         8.336799622
     4.168399873        10.420999465        25.010398865
     0.000000000         2.084199968         8.336799622
     8.336799622         2.084199968         4.168399873
     8.336799622        10.420999465         0.000000000
     8.336799622        10.420999465         4.168399873
     8.336799622         2.084199968         0.000000000
     4.168399873         6.252599716         4.168399873
     0.000000000         6.252599716         0.000000000
     4.168399873         6.252599716         0.000000000
     0.000000000         6.252599716         4.168399873
     4.168399873         4.168399873         6.252599716
     0.000000000         0.000000000        22.926198959
     0.000000000         0.000000000         6.252599716
     4.168399873         4.168399873        22.926198959
     0.000000000         4.168399873        22.926198959
     4.168399873         0.000000000         6.252599716
     4.168399873         0.000000000        22.926198959
     0.000000000         4.168399873         6.252599716
     8.336799622         4.168399873         2.084199968
     8.336799622         0.000000000        27.094598708
     8.336799622         0.000000000         2.084199968
     8.336799622         4.168399873        27.094598708
     4.168399873         8.336799622         2.084199968
     0.000000000         8.336799622        27.094598708
     4.168399873         8.336799622        27.094598708
     0.000000000         8.336799622         2.084199968
     2.084199968         2.084199968        10.420999527
    10.420999465        10.420999465        18.757799149
    10.420999465        10.420999465        10.420999527
     2.084199968         2.084199968        18.757799149
    10.420999465         2.084199968        18.757799149
     2.084199968        10.420999465        10.420999527
     2.084199968        10.420999465        18.757799149
    10.420999465         2.084199968        10.420999527
     2.084199968         4.168399873        12.505199432
    10.420999465         0.000000000        20.841999054
    10.420999465         0.000000000        12.505199432
     2.084199968         4.168399873        20.841999054
    10.420999465         4.168399873        20.841999054
     2.084199968         0.000000000        12.505199432
     2.084199968         0.000000000        20.841999054
    10.420999465         4.168399873        12.505199432
     4.168399873         2.084199968        12.505199432
     0.000000000        10.420999465        20.841999054
     0.000000000        10.420999465        12.505199432
     4.168399873         2.084199968        20.841999054
     0.000000000         2.084199968        20.841999054
     4.168399873        10.420999465        12.505199432
     4.168399873        10.420999465        20.841999054
     0.000000000         2.084199968        12.505199432
     4.168399873         4.168399873        10.420999527
     0.000000000         0.000000000        18.757799149
     0.000000000         0.000000000        10.420999527
     4.168399873         4.168399873        18.757799149
     0.000000000         4.168399873        18.757799149
     4.168399873         0.000000000        10.420999527
     4.168399873         0.000000000        18.757799149
     0.000000000         4.168399873        10.420999527
     2.084199968         2.084199968        14.589399338
    10.420999465        10.420999465        14.589399338
    10.420999465         2.084199968        14.589399338
     2.084199968        10.420999465        14.589399338
     2.084199968         4.168399873        16.673599243
    10.420999465         0.000000000        16.673599243
    10.420999465         4.168399873        16.673599243
     2.084199968         0.000000000        16.673599243
     4.168399873         2.084199968        16.673599243
     0.000000000        10.420999465        16.673599243
     0.000000000         2.084199968        16.673599243
     4.168399873        10.420999465        16.673599243
     4.168399873         4.168399873        14.589399338
     0.000000000         0.000000000        14.589399338
     0.000000000         4.168399873        14.589399338
     4.168399873         0.000000000        14.589399338
     2.084199968         6.252599778         6.252599716
    10.420999465         6.252599654        22.926198959
    10.420999465         6.252599654         6.252599716
     2.084199968         6.252599778        22.926198959
     6.252599716         2.084199968         6.252599778
     6.252599716        10.420999465        22.926198897
     6.252599716        10.420999465         6.252599778
     6.252599716         2.084199968        22.926198897
     6.252599778         6.252599716         2.084199968
     6.252599654         6.252599716        27.094598708
     2.084199968         8.336799684         8.336799622
    10.420999465         8.336799559        25.010398865
    10.420999465         8.336799559         8.336799622
     2.084199968         8.336799684        25.010398865
     6.252599716         4.168399873         8.336799684
     6.252599716         0.000000000        25.010398803
     6.252599716         0.000000000         8.336799684
     6.252599716         4.168399873        25.010398803
     6.252599778         8.336799622         4.168399873
     6.252599654         8.336799622         0.000000000
     4.168399873         6.252599778         8.336799622
     0.000000000         6.252599654        25.010398865
     0.000000000         6.252599654         8.336799622
     4.168399873         6.252599778        25.010398865
     8.336799622         2.084199968         8.336799684
     8.336799622        10.420999465        25.010398803
     8.336799622        10.420999465         8.336799684
     8.336799622         2.084199968        25.010398803
     8.336799684         6.252599716         4.168399873
     8.336799559         6.252599716         0.000000000
     4.168399873         8.336799684         6.252599716
     0.000000000         8.336799559        22.926198959
     0.000000000         8.336799559         6.252599716
     4.168399873         8.336799684        22.926198959
     8.336799622         4.168399873         6.252599778
     8.336799622         0.000000000        22.926198897
     8.336799622         0.000000000         6.252599778
     8.336799622         4.168399873        22.926198897
     8.336799684         8.336799622         2.084199968
     8.336799559         8.336799622        27.094598708
     2.084199968         6.252599778        10.420999527
    10.420999465         6.252599654        18.757799149
    10.420999465         6.252599654        10.420999527
     2.084199968         6.252599778        18.757799149
     6.252599778         2.084199968        18.757799149
     6.252599654        10.420999465        10.420999527
     6.252599654        10.420999465        18.757799149
     6.252599778         2.084199968        10.420999527
     2.084199968         8.336799684        12.505199432
    10.420999465         8.336799559        20.841999054
    10.420999465         8.336799559        12.505199432
     2.084199968         8.336799684        20.841999054
     6.252599778         4.168399873        20.841999054
     6.252599654         0.000000000        12.505199432
     6.252599654         0.000000000        20.841999054
     6.252599778         4.168399873        12.505199432
     4.168399873         6.252599778        12.505199432
     0.000000000         6.252599654        20.841999054
     0.000000000         6.252599654        12.505199432
     4.168399873         6.252599778        20.841999054
     8.336799684         2.084199968        20.841999054
     8.336799559        10.420999465        12.505199432
     8.336799559        10.420999465        20.841999054
     8.336799684         2.084199968        12.505199432
     4.168399873         8.336799684        10.420999527
     0.000000000         8.336799559        18.757799149
     0.000000000         8.336799559        10.420999527
     4.168399873         8.336799684        18.757799149
     8.336799684         4.168399873        18.757799149
     8.336799559         0.000000000        10.420999527
     8.336799559         0.000000000        18.757799149
     8.336799684         4.168399873        10.420999527
     2.084199968         6.252599778        14.589399338
    10.420999465         6.252599654        14.589399338
     6.252599778         2.084199968        14.589399338
     6.252599654        10.420999465        14.589399338
     2.084199968         8.336799684        16.673599243
    10.420999465         8.336799559        16.673599243
     6.252599778         4.168399873        16.673599243
     6.252599654         0.000000000        16.673599243
     4.168399873         6.252599778        16.673599243
     0.000000000         6.252599654        16.673599243
     8.336799684         2.084199968        16.673599243
     8.336799559        10.420999465        16.673599243
     4.168399873         8.336799684        14.589399338
     0.000000000         8.336799559        14.589399338
     8.336799684         4.168399873        14.589399338
     8.336799559         0.000000000        14.589399338
     6.252599778         6.252599778         6.252599716
     6.252599654         6.252599654        22.926198959
     6.252599778         8.336799684         8.336799622
     6.252599654         8.336799559        25.010398865
     8.336799684         6.252599778         8.336799622
     8.336799559         6.252599654        25.010398865
     8.336799684         8.336799684         6.252599716
     8.336799559         8.336799559        22.926198959
     6.252599778         6.252599778        10.420999527
     6.252599654         6.252599654        18.757799149
     6.252599778         8.336799684        12.505199432
     6.252599654         8.336799559        20.841999054
     8.336799684         6.252599778        12.505199432
     8.336799559         6.252599654        20.841999054
     8.336799684         8.336799684        10.420999527
     8.336799559         8.336799559        18.757799149
     6.252599778         6.252599778        14.589399338
     6.252599778         8.336799684        16.673599243
     8.336799684         6.252599778        16.673599243
     8.336799684         8.336799684        14.589399338
     0.000000000         0.000000000         0.000000000
     0.000000000         2.084199905         2.084199905
     2.084199905         0.000000000         2.084199905
     2.084199905         2.084199905         0.000000000
     0.000000000         0.000000000         4.168399811
     0.000000000         0.000000000        25.010398865
     4.168399811         0.000000000         0.000000000
     8.336799622         0.000000000         0.000000000
     0.000000000         4.168399811         0.000000000
     0.000000000         8.336799622         0.000000000
     0.000000000         2.084199905         6.252599716
     0.000000000         2.084199905        27.094598770
     4.168399811         2.084199905         2.084199905
     8.336799622         2.084199905         2.084199905
     0.000000000         6.252599716         2.084199905
     0.000000000        10.420999527         2.084199905
     2.084199905         0.000000000         6.252599716
     2.084199905         0.000000000        27.094598770
     6.252599716         0.000000000         2.084199905
    10.420999527         0.000000000         2.084199905
     2.084199905         4.168399811         2.084199905
     2.084199905         8.336799622         2.084199905
     2.084199905         2.084199905         4.168399811
     2.084199905         2.084199905        25.010398865
     6.252599716         2.084199905         0.000000000
    10.420999527         2.084199905         0.000000000
     2.084199905         6.252599716         0.000000000
     2.084199905        10.420999527         0.000000000
     0.000000000         0.000000000         8.336799622
     0.000000000         0.000000000        20.841999054
     0.000000000         2.084199905        10.420999527
     0.000000000         2.084199905        22.926198959
     2.084199905         0.000000000        10.420999527
     2.084199905         0.000000000        22.926198959
     2.084199905         2.084199905         8.336799622
     2.084199905         2.084199905        20.841999054
     0.000000000         0.000000000        12.505199432
     0.000000000         0.000000000        16.673599243
     0.000000000         2.084199905        14.589399338
     0.000000000         2.084199905        18.757799149
     2.084199905         0.000000000        14.589399338
     2.084199905         0.000000000        18.757799149
     2.084199905         2.084199905        12.505199432
     2.084199905         2.084199905        16.673599243
     0.000000000         4.168399811         4.168399811
     0.000000000         8.336799622        25.010398865
     0.000000000         8.336799622         4.168399811
     0.000000000         4.168399811        25.010398865
     4.168399811         0.000000000         4.168399811
     8.336799622         0.000000000        25.010398865
     4.168399811         0.000000000        25.010398865
     8.336799622         0.000000000         4.168399811
     4.168399811         4.168399811         0.000000000
     8.336799622         8.336799622         0.000000000
     8.336799622         4.168399811         0.000000000
     4.168399811         8.336799622         0.000000000
     0.000000000         6.252599716         6.252599716
     0.000000000        10.420999527        27.094598770
     0.000000000        10.420999527         6.252599716
     0.000000000         6.252599716        27.094598770
     4.168399811         2.084199905         6.252599716
     8.336799622         2.084199905        27.094598770
     4.168399811         2.084199905        27.094598770
     8.336799622         2.084199905         6.252599716
     4.168399811         6.252599716         2.084199905
     8.336799622        10.420999527         2.084199905
     8.336799622         6.252599716         2.084199905
     4.168399811        10.420999527         2.084199905
     2.084199905         4.168399811         6.252599716
     2.084199905         8.336799622        27.094598770
     2.084199905         8.336799622         6.252599716
     2.084199905         4.168399811        27.094598770
     6.252599716         0.000000000         6.252599716
    10.420999527         0.000000000        27.094598770
     6.252599716         0.000000000        27.094598770
    10.420999527         0.000000000         6.252599716
     6.252599716         4.168399811         2.084199905
    10.420999527         8.336799622         2.084199905
    10.420999527         4.168399811         2.084199905
     6.252599716         8.336799622         2.084199905
     2.084199905         6.252599716         4.168399811
     2.084199905        10.420999527        25.010398865
     2.084199905        10.420999527         4.168399811
     2.084199905         6.252599716        25.010398865
     6.252599716         2.084199905         4.168399811
    10.420999527         2.084199905        25.010398865
     6.252599716         2.084199905        25.010398865
    10.420999527         2.084199905         4.168399811
     6.252599716         6.252599716         0.000000000
    10.420999527        10.420999527         0.000000000
    10.420999527         6.252599716         0.000000000
     6.252599716        10.420999527         0.000000000
     0.000000000         4.168399811         8.336799622
     0.000000000         8.336799622        20.841999054
     0.000000000         8.336799622         8.336799622
     0.000000000         4.168399811        20.841999054
     4.168399811         0.000000000        20.841999054
     8.336799622         0.000000000         8.336799622
     8.336799622         0.000000000        20.841999054
     4.168399811         0.000000000         8.336799622
     0.000000000         6.252599716        10.420999527
     0.000000000        10.420999527        22.926198959
     0.000000000        10.420999527        10.420999527
     0.000000000         6.252599716        22.926198959
     4.168399811         2.084199905        22.926198959
     8.336799622         2.084199905        10.420999527
     8.336799622         2.084199905        22.926198959
     4.168399811         2.084199905        10.420999527
     2.084199905         4.168399811        10.420999527
     2.084199905         8.336799622        22.926198959
     2.084199905         8.336799622        10.420999527
     2.084199905         4.168399811        22.926198959
     6.252599716         0.000000000        22.926198959
    10.420999527         0.000000000        10.420999527
    10.420999527         0.000000000        22.926198959
     6.252599716         0.000000000        10.420999527
     2.084199905         6.252599716         8.336799622
     2.084199905        10.420999527        20.841999054
     2.084199905        10.420999527         8.336799622
     2.084199905         6.252599716        20.841999054
     6.252599716         2.084199905        20.841999054
    10.420999527         2.084199905         8.336799622
    10.420999527         2.084199905        20.841999054
     6.252599716         2.084199905         8.336799622
     0.000000000         4.168399811        12.505199432
     0.000000000         8.336799622        16.673599243
     0.000000000         8.336799622        12.505199432
     0.000000000         4.168399811        16.673599243
     4.168399811         0.000000000        16.673599243
     8.336799622         0.000000000        12.505199432
     8.336799622         0.000000000        16.673599243
     4.168399811         0.000000000        12.505199432
     0.000000000         6.252599716        14.589399338
     0.000000000        10.420999527        18.757799149
     0.000000000        10.420999527        14.589399338
     0.000000000         6.252599716        18.757799149
     4.168399811         2.084199905        18.757799149
     8.336799622         2.084199905        14.589399338
     8.336799622         2.084199905        18.757799149
     4.168399811         2.084199905        14.589399338
     2.084199905         4.168399811        14.589399338
     2.084199905         8.336799622        18.757799149
     2.084199905         8.336799622        14.589399338
     2.084199905         4.168399811        18.757799149
     6.252599716         0.000000000        18.757799149
    10.420999527         0.000000000        14.589399338
    10.420999527         0.000000000        18.757799149
     6.252599716         0.000000000        14.589399338
     2.084199905         6.252599716        12.505199432
     2.084199905        10.420999527        16.673599243
     2.084199905        10.420999527        12.505199432
     2.084199905         6.252599716        16.673599243
     6.252599716         2.084199905        16.673599243
    10.420999527         2.084199905        12.505199432
    10.420999527         2.084199905        16.673599243
     6.252599716         2.084199905        12.505199432
     4.168399811         4.168399811         4.168399811
     8.336799622         8.336799622        25.010398865
     8.336799622         8.336799622         4.168399811
     4.168399811         4.168399811        25.010398865
     8.336799622         4.168399811        25.010398865
     4.168399811         8.336799622         4.168399811
     4.168399811         8.336799622        25.010398865
     8.336799622         4.168399811         4.168399811
     4.168399811         6.252599716         6.252599716
     8.336799622        10.420999527        27.094598770
     8.336799622        10.420999527         6.252599716
     4.168399811         6.252599716        27.094598770
     8.336799622         6.252599716        27.094598770
     4.168399811        10.420999527         6.252599716
     4.168399811        10.420999527        27.094598770
     8.336799622         6.252599716         6.252599716
     6.252599716         4.168399811         6.252599716
    10.420999527         8.336799622        27.094598770
    10.420999527         8.336799622         6.252599716
     6.252599716         4.168399811        27.094598770
    10.420999527         4.168399811        27.094598770
     6.252599716         8.336799622         6.252599716
     6.252599716         8.336799622        27.094598770
    10.420999527         4.168399811         6.252599716
     6.252599716         6.252599716         4.168399811
    10.420999527        10.420999527        25.010398865
    10.420999527        10.420999527         4.168399811
     6.252599716         6.252599716        25.010398865
    10.420999527         6.252599716        25.010398865
     6.252599716        10.420999527         4.168399811
     6.252599716        10.420999527        25.010398865
    10.420999527         6.252599716         4.168399811
     4.168399811         4.168399811         8.336799622
     8.336799622         8.336799622        20.841999054
     8.336799622         8.336799622         8.336799622
     4.168399811         4.168399811        20.841999054
     8.336799622         4.168399811        20.841999054
     4.168399811         8.336799622         8.336799622
     4.168399811         8.336799622        20.841999054
     8.336799622         4.168399811         8.336799622
     4.168399811         6.252599716        10.420999527
     8.336799622        10.420999527        22.926198959
     8.336799622        10.420999527        10.420999527
     4.168399811         6.252599716        22.926198959
     8.336799622         6.252599716        22.926198959
     4.168399811        10.420999527        10.420999527
     4.168399811        10.420999527        22.926198959
     8.336799622         6.252599716        10.420999527
     6.252599716         4.168399811        10.420999527
    10.420999527         8.336799622        22.926198959
    10.420999527         8.336799622        10.420999527
     6.252599716         4.168399811        22.926198959
    10.420999527         4.168399811        22.926198959
     6.252599716         8.336799622        10.420999527
     6.252599716         8.336799622        22.926198959
    10.420999527         4.168399811        10.420999527
     6.252599716         6.252599716         8.336799622
    10.420999527        10.420999527        20.841999054
    10.420999527        10.420999527         8.336799622
     6.252599716         6.252599716        20.841999054
    10.420999527         6.252599716        20.841999054
     6.252599716        10.420999527         8.336799622
     6.252599716        10.420999527        20.841999054
    10.420999527         6.252599716         8.336799622
     4.168399811         4.168399811        12.505199432
     8.336799622         8.336799622        16.673599243
     8.336799622         8.336799622        12.505199432
     4.168399811         4.168399811        16.673599243
     8.336799622         4.168399811        16.673599243
     4.168399811         8.336799622        12.505199432
     4.168399811         8.336799622        16.673599243
     8.336799622         4.168399811        12.505199432
     4.168399811         6.252599716        14.589399338
     8.336799622        10.420999527        18.757799149
     8.336799622        10.420999527        14.589399338
     4.168399811         6.252599716        18.757799149
     8.336799622         6.252599716        18.757799149
     4.168399811        10.420999527        14.589399338
     4.168399811        10.420999527        18.757799149
     8.336799622         6.252599716        14.589399338
     6.252599716         4.168399811        14.589399338
    10.420999527         8.336799622        18.757799149
    10.420999527         8.336799622        14.589399338
     6.252599716         4.168399811        18.757799149
    10.420999527         4.168399811        18.757799149
     6.252599716         8.336799622        14.589399338
     6.252599716         8.336799622        18.757799149
    10.420999527         4.168399811        14.589399338
     6.252599716         6.252599716        12.505199432
    10.420999527        10.420999527        16.673599243
    10.420999527        10.420999527        12.505199432
     6.252599716         6.252599716        16.673599243
    10.420999527         6.252599716        16.673599243
     6.252599716        10.420999527        12.505199432
     6.252599716        10.420999527        16.673599243
    10.420999527         6.252599716        12.505199432
