Fe8 O12
1.0
   1.5097039999999999   -4.9546469999999996    0.0000000000000000
   1.5097039999999999    4.9546469999999996    0.0000000000000000
   0.0000000000000000    0.0000000000000000   15.9170649999999991
Fe O
8 12
direct
   0.6346970000000000    0.3653030000000000    0.0473940000000000 Fe
   0.3653030000000000    0.6346970000000000    0.9526060000000000 Fe
   0.6346970000000000    0.3653030000000000    0.4526059999999990 Fe
   0.3653030000000000    0.6346970000000000    0.5473939999999990 Fe
   0.0962070000000000    0.9037930000000000    0.6472990000000000 Fe
   0.9037930000000000    0.0962070000000000    0.3527010000000000 Fe
   0.9037930000000000    0.0962070000000000    0.1472989999999990 Fe
   0.0962070000000000    0.9037930000000000    0.8527009999999990 Fe
   0.0000000000000000    0.0000000000000000    0.5000000000000000 O
   0.0000000000000000    0.0000000000000000    0.0000000000000000 O
   0.4712940000000000    0.5287060000000000    0.8525189999999990 O
   0.5287060000000000    0.4712940000000000    0.1474810000000000 O
   0.5287060000000000    0.4712940000000000    0.3525189999999990 O
   0.4712940000000000    0.5287060000000000    0.6474810000000000 O
   0.7281130000000000    0.2718870000000000    0.9274939999999990 O
   0.2718870000000000    0.7281130000000000    0.0725060000000000 O
   0.2718870000000000    0.7281130000000000    0.4274940000000000 O
   0.7281130000000000    0.2718870000000000    0.5725060000000000 O
   0.1794430000000000    0.8205570000000000    0.7500000000000000 O
   0.8205570000000000    0.1794430000000000    0.2500000000000000 O
