Fe12 O18
1.0
   2.7176819999999999   -4.7071639999999997    0.0000000000000000
   2.7176819999999999    4.7071639999999997    0.0000000000000000
   0.0000000000000000    0.0000000000000000   15.0400010000000002
Fe O
12 18
direct
   0.9923179999999990    0.6940689999999990    0.7717539999999991 Fe
   0.3059310000000000    0.2982490000000000    0.7717539999999991 Fe
   0.7017510000000000    0.0076820000000000    0.7717539999999991 Fe
   0.3554730000000000    0.0422520000000000    0.2695240000000000 Fe
   0.9577479999999990    0.3132209999999990    0.2695240000000000 Fe
   0.6867789999999990    0.6445270000000000    0.2695240000000000 Fe
   0.3333330000000000    0.6666670000000000    0.0898160000000000 Fe
   0.3333330000000000    0.6666670000000000    0.9189710000000000 Fe
   0.3333330000000000    0.6666670000000000    0.4269489999999990 Fe
   0.0000000000000000    0.0000000000000000    0.0693889999999990 Fe
   0.6666670000000000    0.3333330000000000    0.9583959999999990 Fe
   0.3333330000000000    0.6666670000000000    0.5983750000000000 Fe
   0.0407089999999990    0.3210050000000000    0.1488420000000000 O
   0.6789950000000000    0.7197030000000000    0.1488420000000000 O
   0.2802969999999990    0.9592910000000000    0.1488420000000000 O
   0.0103609999999990    0.6652480000000000    0.9987509999999991 O
   0.6548860000000000    0.9896389999999990    0.9987509999999991 O
   0.3347520000000000    0.3451140000000000    0.9987509999999991 O
   0.3216759999999990    0.3548070000000000    0.6577229999999999 O
   0.6451930000000000    0.9668690000000000    0.6577229999999999 O
   0.0331310000000000    0.6783239999999990    0.6577229999999999 O
   0.6000249999999990    0.6635719999999991    0.4852130000000000 O
   0.0635469999999990    0.3999749999999990    0.4852130000000000 O
   0.3364280000000000    0.9364530000000000    0.4852130000000000 O
   0.3646749999999990    0.0029210000000000    0.8323400000000001 O
   0.9970789999999990    0.3617539999999990    0.8323400000000001 O
   0.6382460000000000    0.6353249999999990    0.8323400000000001 O
   0.0385110000000000    0.6784279999999990    0.3152530000000000 O
   0.6399180000000000    0.9614889999999990    0.3152530000000000 O
   0.3215719999999990    0.3600819999999990    0.3152530000000000 O
