Ni O  Ni O  Ni O  Ni O  Ni O  Ni O  Ni O  Ni O  Ni O  Ni O 
 1.0000000000000000
     2.9486352775479032    0.0000000000000000    0.0000000000000000
     1.4743176387739516    2.5535930568514633    0.0000000000000000
     0.0000000000000000    0.0000000000000000   52.8717309139470331
 Ni  O   Ni  O   Ni  O   Ni  O   Ni  O   Ni  O   Ni  O   Ni  O   Ni  O   Ni  O  
   1   1   1   1   1   1   1   1   1   1   1   1   1   1   1   1   1   1   1   1
Cartesian
  0.0000000000000000  0.0000000000000000 15.0000000000000000
  2.9486352775479037  1.7023953712343092 16.2037753112603689
  1.4743176387739516  0.8511976856171544 17.4075506225207413
  0.0000000000000007  0.0000000000000000 18.6113259337811101
  2.9486352775479032  1.7023953712343087 19.8151012450414790
  1.4743176387739523  0.8511976856171548 21.0188765563018478
  0.0000000000000007  0.0000000000000000 22.2226518675622202
  2.9486352775479050  1.7023953712343092 23.4264271788225926
  1.4743176387739521  0.8511976856171543 24.6302024900829579
  0.0000000000000007  0.0000000000000011 25.8339778013433303
  2.9486352775479050  1.7023953712343092 27.0377531126037027
  1.4743176387739543  0.8511976856171559 28.2415284238640716
  0.0000000000000013  0.0000000000000000 29.4453037351244404
  2.9486352775479041  1.7023953712343085 30.6490790463848093
  1.4743176387739516  0.8511976856171537 31.8528543576451781
  0.0000000000000013  0.0000000000000000 33.0566296689055505
  2.9486352775479041  1.7023953712343085 34.2604049801659158
  1.4743176387739549  0.8511976856171548 35.4641802914262954
  0.0000000000000013  0.0000000000000000 36.6679556026866607
  2.9486352775479072  1.7023953712343096 37.8717309139470331
