Fe2 O3
1.0
   3.7885119999999999    0.0000000000000000    0.0000000000000000
   0.0000000000000000    3.7885119999999999    0.0000000000000000
   0.0000000000000000    0.0000000000000000    3.7885119999999999
Fe O
2 3
direct
   0.0000000000000000    0.0000000000000000    0.0000000000000000 Fe
   0.5000000000000000    0.5000000000000000    0.5000000000000000 Fe
   0.5000000000000000    0.0000000000000000    0.5000000000000000 O
   0.0000000000000000    0.5000000000000000    0.5000000000000000 O
   0.5000000000000000    0.5000000000000000    0.0000000000000000 O
