Ti4 O8
1.0
   0.0000000000000000    4.2191749999999999    4.2191749999999999
   4.2191749999999999    0.0000000000000000    4.2191749999999999
   4.2191749999999999    4.2191749999999999    0.0000000000000000
Ti O
4 8
direct
   0.1250000000000000    0.1250000000000000    0.6250000000000000 Ti
   0.6250000000000000    0.1250000000000000    0.1250000000000000 Ti
   0.1250000000000000    0.6250000000000000    0.1250000000000000 Ti
   0.1250000000000000    0.1250000000000000    0.1250000000000000 Ti
   0.8907990000000000    0.8907990000000000    0.8907990000000000 O
   0.8907990000000000    0.3276030000000000    0.8907990000000000 O
   0.8907990000000000    0.8907990000000000    0.3276030000000000 O
   0.3276030000000000    0.8907990000000000    0.8907990000000000 O
   0.3592010000000000    0.3592010000000000    0.9223970000000000 O
   0.9223970000000000    0.3592010000000000    0.3592010000000000 O
   0.3592010000000000    0.9223970000000000    0.3592010000000000 O
   0.3592010000000000    0.3592010000000000    0.3592010000000000 O
