Ti4 O8
1.0
   5.0678080000000003   -3.0107780000000002    0.0000000000000000
   5.0678080000000003    3.0107780000000002    0.0000000000000000
   3.2791090000000001    0.0000000000000000    4.8984600000000000
Ti O
4 8
direct
   0.2423480000000000    0.2423480000000000    0.2423480000000000 Ti
   0.6310360000000000    0.0992370000000000    0.6310360000000000 Ti
   0.6310360000000000    0.6310360000000000    0.0992370000000000 Ti
   0.0992370000000000    0.6310360000000000    0.6310360000000000 Ti
   0.8701710000000000    0.3654060000000000    0.3654060000000000 O
   0.3654060000000000    0.3654060000000000    0.8701710000000000 O
   0.3654060000000000    0.8701710000000000    0.3654060000000000 O
   0.3822610000000000    0.3822610000000000    0.3822610000000000 O
   0.8652470000000000    0.8652470000000000    0.8652470000000000 O
   0.8736760000000000    0.4230510000000000    0.8736760000000000 O
   0.8736760000000000    0.8736760000000000    0.4230510000000000 O
   0.4230510000000000    0.8736760000000000    0.8736760000000000 O
