Fe16 O24
1.0
   5.2153369999999999    0.0000000000000000    0.0000000000000000
   0.0000000000000000    8.9524740000000005    0.0000000000000000
   0.0000000000000000    0.0000000000000000    9.5955189999999995
Fe O
16 24
direct
   0.6877110000000000    0.3403270000000000    0.8718079999999990 Fe
   0.3122890000000000    0.6596730000000000    0.3718079999999990 Fe
   0.1877110000000000    0.1596729999999990    0.8718079999999990 Fe
   0.8122889999999990    0.8403269999999990    0.3718079999999990 Fe
   0.6777059999999990    0.6510690000000000    0.0618820000000000 Fe
   0.1777060000000000    0.8489310000000000    0.0618820000000000 Fe
   0.8222940000000000    0.1510689999999990    0.5618820000000000 Fe
   0.3222939999999990    0.3489310000000000    0.5618820000000000 Fe
   0.6914100000000001    0.6527069999999990    0.6449720000000000 Fe
   0.8085900000000000    0.1527069999999990    0.1449720000000000 Fe
   0.3085900000000000    0.3472929999999990    0.1449720000000000 Fe
   0.1914100000000000    0.8472930000000000    0.6449720000000000 Fe
   0.1756180000000000    0.5315540000000000    0.8594470000000000 Fe
   0.6756179999999991    0.9684459999999990    0.8594470000000000 Fe
   0.8243819999999999    0.4684460000000000    0.3594469999999990 Fe
   0.3243820000000000    0.0315540000000000    0.3594469999999990 Fe
   0.8383349999999991    0.1589789999999990    0.7625580000000000 O
   0.3383350000000000    0.3410209999999990    0.7625580000000000 O
   0.1616650000000000    0.8410209999999990    0.2625580000000000 O
   0.6616649999999999    0.6589790000000000    0.2625580000000000 O
   0.6537940000000000    0.3306040000000000    0.2340179999999990 O
   0.3462059999999990    0.6693960000000000    0.7340179999999999 O
   0.1537940000000000    0.1693960000000000    0.2340179999999990 O
   0.8462060000000000    0.8306040000000000    0.7340179999999999 O
   0.1591700000000000    0.5002390000000000    0.2664030000000000 O
   0.3408300000000000    0.0002389999999990    0.7664029999999999 O
   0.6591700000000000    0.9997609999999991    0.2664030000000000 O
   0.8408300000000001    0.4997609999999990    0.7664029999999999 O
   0.9821780000000000    0.6766909999999990    0.4917880000000000 O
   0.0178219999999990    0.3233090000000000    0.9917880000000000 O
   0.4821780000000000    0.8233090000000000    0.4917880000000000 O
   0.5178220000000000    0.1766910000000000    0.9917880000000000 O
   0.4783820000000000    0.1683660000000000    0.4985679999999990 O
   0.0216180000000000    0.6683660000000000    0.9985679999999991 O
   0.9783820000000000    0.3316340000000000    0.4985679999999990 O
   0.5216180000000000    0.8316340000000000    0.9985679999999991 O
   0.0252140000000000    0.9883660000000000    0.4960549999999990 O
   0.9747859999999990    0.0116340000000000    0.9960549999999990 O
   0.5252140000000000    0.5116339999999990    0.4960549999999990 O
   0.4747860000000000    0.4883659999999990    0.9960549999999990 O
