Fe8 O12
1.0
   5.1446569999999996   -0.0055309999999990   -0.0072619999999990
  -0.0057259999999990    5.2883630000000004    0.0138950000000000
  -0.0108580000000000    0.0199910000000000    7.5113830000000004
Fe O
8 12
direct
   0.2500960000000000    0.9709789999999990    0.8880790000000000 Fe
   0.2511540000000000    0.5307620000000000    0.1145709999999990 Fe
   0.7545020000000000    0.0307430000000000    0.1135709999999990 Fe
   0.2553320000000000    0.0293870000000000    0.3881280000000000 Fe
   0.7512200000000001    0.5303780000000000    0.3889700000000000 Fe
   0.7492730000000000    0.9677260000000000    0.6161500000000001 Fe
   0.7534710000000000    0.4716829999999990    0.8909220000000000 Fe
   0.2545040000000000    0.4674109999999990    0.6149720000000000 Fe
   0.4494930000000000    0.7470770000000000    0.4980030000000000 O
   0.5449760000000000    0.2455700000000000    0.4968149999999991 O
   0.0466030000000000    0.2547620000000000    0.9969650000000000 O
   0.9477329999999990    0.7542920000000000    0.9969309999999991 O
   0.8913179999999991    0.8956740000000000    0.3472500000000000 O
   0.1064720000000000    0.3975500000000000    0.3446849999999990 O
   0.3902270000000000    0.9006649999999990    0.1510860000000000 O
   0.6085280000000000    0.3998939999999990    0.1542530000000000 O
   0.1079850000000000    0.0957180000000000    0.6536149999999999 O
   0.6052719999999990    0.1073890000000000    0.8444490000000000 O
   0.8902979999999990    0.5948570000000000    0.6529320000000000 O
   0.3915420000000000    0.6074840000000000    0.8476520000000000 O
