System   = NiO (AFM-II, SCF HSE06+HF)
ISPIN    = 2
ISYM     = 0
ENCUT    = 600
PREC     = Accurate
ADDGRID  = .TRUE.
LASPH    = .TRUE.
LREAL    = .FALSE.

LDAU     = .TRUE.
LDAUTYPE = 2
LDAUL    = 2  -1      # Ni  O
LDAUU    = 6.0 0.0
LDAUJ    = 0   0

LHFCALC  = .TRUE.
AEXX     = 0.18
HFSCREEN = 0.2
ALGO     = All
PRECFOCK = Fast
EDIFF    = 1e-06
NELM     = 120

ISMEAR   = -5
SIGMA    = 0.05
IBRION   = -1

ISTART   = 1
ICHARG   = 11

NWRITE   = 1
LCHARG   = .TRUE.
LWAVE    = .FALSE.
