Fe16 O24
1.0
   5.1425749999999999    0.0000000000000000    0.0000000000000000
   0.0155769999999990    5.3832360000000001    0.0000000000000000
   0.0036720000000000    0.1016700000000000   14.9012349999999998
Fe O
16 24
direct
   0.9996250000000000    0.8228169999999990    0.0763100000000000 Fe
   0.0021140000000000    0.2604920000000000    0.1790520000000000 Fe
   0.9966590000000000    0.6836220000000000    0.5720280000000000 Fe
   0.0029000000000000    0.2370110000000000    0.6799020000000000 Fe
   0.4997300000000001    0.7603690000000000    0.1817639999999990 Fe
   0.4975139999999990    0.7410080000000000    0.6807920000000000 Fe
   0.5013360000000000    0.3234080000000000    0.0749010000000000 Fe
   0.5022960000000000    0.1853479999999990    0.5725519999999999 Fe
   0.4968100000000000    0.8143290000000000    0.4264000000000000 Fe
   0.4972850000000000    0.6843629999999991    0.9298379999999991 Fe
   0.4998789999999990    0.2557379999999990    0.3190100000000000 Fe
   0.5014230000000000    0.2443419999999990    0.8212600000000001 Fe
   0.0009379999999990    0.3126350000000000    0.4252329999999990 Fe
   0.0019320000000000    0.7509850000000000    0.3243390000000000 Fe
   0.9962019999999990    0.7387640000000000    0.8211140000000000 Fe
   0.0015049999999990    0.1810760000000000    0.9285310000000000 Fe
   0.8632219999999990    0.8818859999999999    0.2056980000000000 O
   0.8578530000000000    0.6100940000000000    0.7028040000000000 O
   0.8530970000000000    0.1547720000000000    0.0520280000000000 O
   0.8465269999999990    0.3342100000000000    0.5488350000000000 O
   0.8082020000000000    0.0354960000000000    0.3726890000000000 O
   0.8022739999999990    0.4584310000000000    0.8773380000000000 O
   0.7021339999999990    0.5446580000000000    0.3715230000000000 O
   0.7022410000000000    0.9593689999999990    0.8766490000000000 O
   0.6534880000000000    0.8330390000000000    0.5493279999999990 O
   0.6523639999999991    0.6555810000000000    0.0518900000000000 O
   0.6354060000000000    0.3838149999999990    0.2009560000000000 O
   0.6397510000000000    0.1104310000000000    0.7027139999999999 O
   0.3462090000000000    0.8968950000000000    0.2973119999999990 O
   0.3575250000000000    0.6102290000000000    0.7971900000000001 O
   0.3527740000000000    0.1705660000000000    0.4479110000000000 O
   0.3480669999999990    0.3309610000000000    0.9505049999999990 O
   0.2982829999999990    0.4617060000000000    0.6218500000000000 O
   0.3059080000000000    0.0457080000000000    0.1237180000000000 O
   0.1943320000000000    0.5464289999999991    0.1219550000000000 O
   0.1960420000000000    0.9581379999999990    0.6223620000000000 O
   0.1467149999999990    0.6701500000000000    0.4468979999999990 O
   0.1533870000000000    0.8327230000000000    0.9515760000000000 O
   0.1429910000000000    0.1119790000000000    0.7970170000000000 O
   0.1430620000000000    0.4064259999999990    0.2962300000000000 O
