Fe4 O6
1.0
   1.4361670000000000   -4.7636839999999996    0.0000000000000000
   1.4361670000000000    4.7636839999999996    0.0000000000000000
   0.0000000000000000    0.0000000000000000    7.3117859999999997
Fe O
4 6
direct
   0.0000000000000000    0.0000000000000000    0.5000000000000000 Fe
   0.0000000000000000    0.0000000000000000    0.0000000000000000 Fe
   0.7510530000000000    0.2489470000000000    0.2500000000000000 Fe
   0.2489470000000000    0.7510530000000000    0.7500000000000000 Fe
   0.1028139999999990    0.8971859999999990    0.2500000000000000 O
   0.8971859999999990    0.1028139999999990    0.7500000000000000 O
   0.3610100000000001    0.6389900000000001    0.4246669999999990 O
   0.6389900000000001    0.3610100000000001    0.5753330000000000 O
   0.3610100000000001    0.6389900000000001    0.0753330000000000 O
   0.6389900000000001    0.3610100000000001    0.9246669999999990 O
