Ni1 O1
1.0
        2.9248397350         0.0000000000         0.0000000000
       -1.4624198675         2.5329855125         0.0000000000
        0.0000000000         0.0000000000         3.4422619343
   Ni    O
    1    1
Cartesian
     0.000000000         0.000000000         0.000000000
     0.000000000         0.000000000         1.721130967
