Generated from VESTA
1.0
2.924840 0.000000 0.000000
-1.462420 2.532986 0.000000
0.000000 0.000000 3.442262
0 0.000000 Ni O
1 2 1 1
Direct
1.000000 0.000000 0.000000
2.000000
1.000000 0.000000 0.000000
-2.000000
0.000000 0.000000 0.000000
