Fe32 O48
1.0
  10.2596089999999993    0.2420759999999990   -0.2796110000000000
   0.2330160000000000   10.2302060000000008   -0.0431340000000000
  -0.2830500000000000   -0.0305709999999990   10.3838729999999995
Fe O
32 48
direct
   0.5367339999999990    0.7510910000000000    0.0828280000000000 Fe
   0.4237510000000000    0.0625889999999990    0.5720660000000000 Fe
   0.7939120000000000    0.7718919999999990    0.7984840000000000 Fe
   0.9041330000000000    0.0670190000000000    0.4344590000000000 Fe
   0.3647640000000000    0.2315070000000000    0.1922920000000000 Fe
   0.4556710000000000    0.3870880000000000    0.4540869999999990 Fe
   0.4735580000000000    0.0578889999999990    0.9370170000000000 Fe
   0.6389830000000000    0.5107729999999990    0.9709350000000000 Fe
   0.1543890000000000    0.5479050000000000    0.5385280000000000 Fe
   0.3851000000000000    0.5262220000000000    0.8155319999999990 Fe
   0.9053129999999990    0.0028660000000000    0.1202680000000000 Fe
   0.1183849999999990    0.0678430000000000    0.6510079999999990 Fe
   0.6379490000000000    0.2650980000000000    0.7327450000000000 Fe
   0.1673940000000000    0.2429170000000000    0.4208190000000000 Fe
   0.3469830000000000    0.5423180000000000    0.1507700000000000 Fe
   0.3448449999999990    0.8524459999999990    0.8484570000000000 Fe
   0.9928619999999990    0.2158129999999990    0.8504250000000000 Fe
   0.6540589999999999    0.5465300000000001    0.6765249999999990 Fe
   0.4122570000000000    0.7172069999999990    0.5728700000000000 Fe
   0.0920219999999990    0.3199940000000000    0.1000800000000000 Fe
   0.7717710000000000    0.8074870000000000    0.2553440000000000 Fe
   0.9963449999999990    0.5882940000000000    0.2405689999999990 Fe
   0.1743920000000000    0.7873080000000000    0.1359250000000000 Fe
   0.6363120000000000    0.1051570000000000    0.3181839999999990 Fe
   0.7526339999999990    0.2141890000000000    0.0083710000000000 Fe
   0.0261100000000000    0.8707110000000000    0.8655870000000000 Fe
   0.6540790000000000    0.4731390000000000    0.2462069999999990 Fe
   0.8563989999999990    0.3683720000000000    0.4916560000000000 Fe
   0.0980870000000000    0.8286410000000000    0.4100580000000000 Fe
   0.4024770000000000    0.9291379999999990    0.2490470000000000 Fe
   0.0397109999999990    0.5150340000000000    0.7807480000000000 Fe
   0.6861680000000000    0.8703879999999991    0.5627070000000000 Fe
   0.7278700000000000    0.3845820000000000    0.6210960000000000 O
   0.8816269999999991    0.8884900000000001    0.9671520000000000 O
   0.4900670000000000    0.5419269999999990    0.5630570000000000 O
   0.8100000000000001    0.2563070000000000    0.8350400000000001 O
   0.7879429999999999    0.4928030000000000    0.3686029999999990 O
   0.7576079999999999    0.1969520000000000    0.4259159999999990 O
   0.4018629999999990    0.7020640000000000    0.7576710000000000 O
   0.3645640000000000    0.0214339999999990    0.7780950000000000 O
   0.1645220000000000    0.6036230000000000    0.1551950000000000 O
   0.9946539999999990    0.4727980000000000    0.6057460000000000 O
   0.5164870000000000    0.2732970000000000    0.3050170000000000 O
   0.5962130000000000    0.1733100000000000    0.8930279999999990 O
   0.1921610000000000    0.8491930000000000    0.9564250000000000 O
   0.9977889999999990    0.2326480000000000    0.4759440000000000 O
   0.5037300000000000    0.2298540000000000    0.5947239999999990 O
   0.2441469999999990    0.1041500000000000    0.5299889999999990 O
   0.1383490000000000    0.2183270000000000    0.7524609999999990 O
   0.9674579999999990    0.1657249999999990    0.0351470000000000 O
   0.5528130000000000    0.4302580000000000    0.8045669999999990 O
   0.7341670000000000    0.0901820000000000    0.1472700000000000 O
   0.2201370000000000    0.8878640000000000    0.2881350000000000 O
   0.9764379999999990    0.4153320000000000    0.1950619999999990 O
   0.7484390000000000    0.9355810000000000    0.7197580000000000 O
   0.2359850000000000    0.7242210000000000    0.5240819999999990 O
   0.6825230000000000    0.6301359999999990    0.1328610000000000 O
   0.7329019999999991    0.6972729999999990    0.6158700000000000 O
   0.2622170000000000    0.4020169999999990    0.4572190000000000 O
   0.4656019999999990    0.0440580000000000    0.3816819999999990 O
   0.9813149999999990    0.7026000000000000    0.7969480000000000 O
   0.5109660000000000    0.8707690000000000    0.9420369999999991 O
   0.6820870000000000    0.3709130000000000    0.0870280000000000 O
   0.2898520000000000    0.3703470000000000    0.0857810000000000 O
   0.7154380000000000    0.6169810000000000    0.8523219999999990 O
   0.0300569999999990    0.9462450000000000    0.5398959999999990 O
   0.0052229999999990    0.0371250000000000    0.7816580000000000 O
   0.5857629999999990    0.8722219999999991    0.2170419999999990 O
   0.9836590000000000    0.0083010000000000    0.2858030000000000 O
   0.0355189999999990    0.3866870000000000    0.9167010000000000 O
   0.1896810000000000    0.2121900000000000    0.2440109999999990 O
   0.7568809999999990    0.9364110000000000    0.4087150000000000 O
   0.3996409999999990    0.0696089999999990    0.1050720000000000 O
   0.0386030000000000    0.6452820000000000    0.4117150000000000 O
   0.2190889999999990    0.5155390000000000    0.7322820000000000 O
   0.4961440000000000    0.8783460000000000    0.5708679999999990 O
   0.3689770000000000    0.7509460000000000    0.1542840000000000 O
   0.4516110000000000    0.5707179999999999    0.9933639999999990 O
   0.9582100000000001    0.7712260000000000    0.1987459999999990 O
   0.4732179999999990    0.5165759999999990    0.2935830000000000 O
