Fe16 O24
1.0
   5.1648350000000001    0.0000000000000000    0.0000000000000000
   0.0000000000000000    5.4071999999999996    0.0000000000000000
   0.0000000000000000    0.0000000000000000   15.0509120000000003
Fe O
16 24
direct
   0.9987149999999991    0.2008440000000000    0.0714260000000000 Fe
   0.9988049999999991    0.7665830000000000    0.1806279999999990 Fe
   0.9987149999999991    0.2991560000000000    0.5714260000000000 Fe
   0.9988049999999991    0.7334170000000000    0.6806280000000000 Fe
   0.5011949999999999    0.2665830000000000    0.1806279999999990 Fe
   0.5011949999999999    0.2334169999999990    0.6806280000000000 Fe
   0.5012850000000000    0.7008440000000000    0.0714260000000000 Fe
   0.5012850000000000    0.7991560000000000    0.5714260000000000 Fe
   0.4987149999999990    0.2008440000000000    0.4285739999999990 Fe
   0.4987149999999990    0.2991560000000000    0.9285740000000000 Fe
   0.4988050000000000    0.7665830000000000    0.3193720000000000 Fe
   0.4988050000000000    0.7334170000000000    0.8193720000000000 Fe
   0.0012850000000000    0.7008440000000000    0.4285739999999990 Fe
   0.0011949999999990    0.2665830000000000    0.3193720000000000 Fe
   0.0011949999999990    0.2334169999999990    0.8193720000000000 Fe
   0.0012850000000000    0.7991560000000000    0.9285740000000000 Fe
   0.1420980000000000    0.1295750000000000    0.2032290000000000 O
   0.1420980000000000    0.3704250000000000    0.7032290000000000 O
   0.1502629999999990    0.8425589999999999    0.0512450000000000 O
   0.1502629999999990    0.6574409999999991    0.5512450000000000 O
   0.1979510000000000    0.9818549999999990    0.3763930000000000 O
   0.1979510000000000    0.5181450000000000    0.8763930000000000 O
   0.3020490000000000    0.4818550000000000    0.3763930000000000 O
   0.3020490000000000    0.0181449999999990    0.8763930000000000 O
   0.3497369999999990    0.1574410000000000    0.5512450000000000 O
   0.3497369999999990    0.3425590000000000    0.0512450000000000 O
   0.3579020000000000    0.6295750000000000    0.2032290000000000 O
   0.3579020000000000    0.8704250000000000    0.7032290000000000 O
   0.6420979999999999    0.1295750000000000    0.2967710000000000 O
   0.6420979999999999    0.3704250000000000    0.7967710000000000 O
   0.6502629999999990    0.8425589999999999    0.4487549999999990 O
   0.6502629999999990    0.6574409999999991    0.9487549999999991 O
   0.6979510000000000    0.5181450000000000    0.6236070000000000 O
   0.6979510000000000    0.9818549999999990    0.1236070000000000 O
   0.8020490000000000    0.4818550000000000    0.1236070000000000 O
   0.8020490000000000    0.0181449999999990    0.6236070000000000 O
   0.8497370000000000    0.3425590000000000    0.4487549999999990 O
   0.8497370000000000    0.1574410000000000    0.9487549999999991 O
   0.8579019999999991    0.8704250000000000    0.7967710000000000 O
   0.8579019999999991    0.6295750000000000    0.2967710000000000 O
