Fe12 O18
1.0
   2.6937639999999998   -4.6657359999999999    0.0000000000000000
   2.6937639999999998    4.6657359999999999    0.0000000000000000
   0.0000000000000000    0.0000000000000000   14.8101129999999994
Fe O
12 18
direct
   0.0252970000000000    0.6476769999999999    0.2335430000000000 Fe
   0.6223800000000000    0.9747030000000000    0.2335430000000000 Fe
   0.3523230000000000    0.3776200000000000    0.2335430000000000 Fe
   0.3874430000000000    0.9999960000000000    0.7305710000000000 Fe
   0.6125530000000000    0.6125570000000000    0.7305710000000000 Fe
   0.0000040000000000    0.3874470000000000    0.7305710000000000 Fe
   0.0000000000000000    0.0000000000000000    0.9138090000000000 Fe
   0.0000000000000000    0.0000000000000000    0.0793389999999990 Fe
   0.0000000000000000    0.0000000000000000    0.5841900000000001 Fe
   0.3333330000000000    0.6666670000000000    0.9397260000000000 Fe
   0.6666670000000000    0.3333330000000000    0.9408289999999990 Fe
   0.0000000000000000    0.0000000000000000    0.4146640000000000 Fe
   0.3099150000000000    0.0166860000000000    0.1765310000000000 O
   0.7067709999999990    0.6900849999999999    0.1765310000000000 O
   0.9833139999999990    0.2932289999999990    0.1765310000000000 O
   0.6410180000000000    0.6371289999999999    0.8600120000000000 O
   0.9961110000000000    0.3589819999999990    0.8600120000000000 O
   0.3628710000000000    0.0038889999999990    0.8600120000000000 O
   0.0059390000000000    0.6922520000000000    0.0009360000000000 O
   0.3077479999999990    0.3136859999999990    0.0009360000000000 O
   0.6863140000000000    0.9940610000000000    0.0009360000000000 O
   0.9981300000000001    0.2590490000000000    0.5081500000000000 O
   0.7409509999999990    0.7390810000000000    0.5081500000000000 O
   0.2609190000000000    0.0018700000000000    0.5081500000000000 O
   0.0001770000000000    0.7147920000000000    0.6806350000000000 O
   0.2852079999999990    0.2853850000000000    0.6806350000000000 O
   0.7146150000000000    0.9998229999999991    0.6806350000000000 O
   0.7021600000000000    0.0004140000000000    0.3520700000000000 O
   0.2982530000000000    0.2978400000000000    0.3520700000000000 O
   0.9995860000000000    0.7017470000000000    0.3520700000000000 O
