Fe16 O24
1.0
  -3.8106002299999999    6.6264253399999999   -2.6634780300000003
   3.7747197699999999    6.6277533799999997    2.7188843999999999
   7.6149809499999996   -0.0320303100000000   -2.7336315099999999
Fe O
16 24
direct
   0.7822175100000001    0.9716796900000000    0.2495086600000000 Fe
   0.4674973800000000    0.7519328100000000    0.2181067200000000 Fe
   0.2163904100000000    0.0326403000000000    0.7522229400000000 Fe
   0.2480356100000000    0.7792715500000000    0.4713330300000000 Fe
   0.2865778700000000    0.4663288100000000    0.2496874600000000 Fe
   0.7518863500000000    0.2193041999999990    0.5333593900000000 Fe
   0.2468701100000000    0.2839832000000000    0.9672488900000000 Fe
   0.7491953400000000    0.7207401100000000    0.0302132000000000 Fe
   0.7178284700000001    0.5329457500000000    0.7484395900000000 Fe
   0.0382103800000000    0.2485010400000000    0.2844776100000000 Fe
   0.9659576000000000    0.7488547700000000    0.7170503700000000 Fe
   0.5317240600000001    0.2521640300000000    0.7808995700000000 Fe
   0.9983412100000000    0.5004493300000000    0.4941398100000000 Fe
   0.0013294700000000    0.9968600100000000    0.0020990200000000 Fe
   0.5034858999999990    0.4987182900000000    0.0018966200000000 Fe
   0.5003477500000000    0.9978353500000000    0.5012351300000000 Fe
   0.9841491800000001    0.0491094000000000    0.2292944800000000 O
   0.2206682800000000    0.7306945400000000    0.2324382200000000 O
   0.7359783200000000    0.7772114600000000    0.7752416600000001 O
   0.7221734100000000    0.0089124700000000    0.4520382900000000 O
   0.2299216800000000    0.0386339300000000    0.0115781800000000 O
   0.9505988300000000    0.2758095200000000    0.4866513300000000 O
   0.5504473300000000    0.4623736100000000    0.2703780400000000 O
   0.4606953600000000    0.7715157300000001    0.9518122500000000 O
   0.7614265900000000    0.9644523700000001    0.9864865200000000 O
   0.0417612900000000    0.5091931000000000    0.2672928500000000 O
   0.2225746600000000    0.5476914200000000    0.9659684600000000 O
   0.4854531400000000    0.2437999800000000    0.5322960200000000 O
   0.2764602900000000    0.9886999000000000    0.5483188400000000 O
   0.5144476200000000    0.7578575500000000    0.4646480700000000 O
   0.7737146500000001    0.2743382100000000    0.7591129000000000 O
   0.4490825000000000    0.5392287000000000    0.7235034800000000 O
   0.5382912200000000    0.2301043200000000    0.0471368500000000 O
   0.9658665800000000    0.4845498500000000    0.7405780100000000 O
   0.7770221200000000    0.4566382500000000    0.0349732400000000 O
   0.2775640300000000    0.2557790200000000    0.7306052000000000 O
   0.0499549300000000    0.7226373400000000    0.5150482400000000 O
   0.7288348800000000    0.7351374700000001    0.2760253900000000 O
   0.0119567400000000    0.9520455200000000    0.7699007200000000 O
   0.2650609600000000    0.2213711200000000    0.2267557300000000 O
