Fe32 O48
1.0
  10.6514030000000002    0.0698230000000000    0.0804900000000000
   0.0780230000000000    9.6899350000000002    0.2141140000000000
   0.0425349999999990    0.2100530000000000    9.5223440000000004
Fe O
32 48
direct
   0.6387000000000000    0.9999610000000000    0.0899600000000000 Fe
   0.2781820000000000    0.0043879999999990    0.6069820000000000 Fe
   0.6806530000000000    0.8201619999999999    0.8304220000000000 Fe
   0.8209350000000000    0.0593100000000000    0.3418069999999990 Fe
   0.4022110000000000    0.2771440000000000    0.2185059999999990 Fe
   0.4241860000000000    0.3447449999999990    0.5710229999999999 Fe
   0.4443570000000000    0.1251080000000000    0.8606140000000000 Fe
   0.5672550000000000    0.5826290000000000    0.0570640000000000 Fe
   0.1330750000000000    0.4763200000000000    0.6280840000000000 Fe
   0.3683450000000000    0.4432120000000000    0.8793360000000000 Fe
   0.9248909999999990    0.0225790000000000    0.0418700000000000 Fe
   0.9481740000000000    0.0089940000000000    0.6279669999999991 Fe
   0.6256710000000000    0.4930190000000000    0.7467330000000000 Fe
   0.0808769999999990    0.2167830000000000    0.3500570000000000 Fe
   0.3317190000000000    0.5614080000000000    0.2415300000000000 Fe
   0.3883330000000000    0.8021159999999991    0.9157660000000000 Fe
   0.2047090000000000    0.0846580000000000    0.0533390000000000 Fe
   0.6805129999999990    0.5221840000000000    0.4365670000000000 Fe
   0.4403380000000000    0.7345039999999990    0.5701440000000000 Fe
   0.1018640000000000    0.3563989999999990    0.0515440000000000 Fe
   0.7599380000000000    0.7293780000000000    0.2125040000000000 Fe
   0.0199510000000000    0.5327769999999999    0.3173020000000000 Fe
   0.1072870000000000    0.7315720000000000    0.1094639999999990 Fe
   0.5518950000000000    0.0501459999999990    0.3920450000000000 Fe
   0.6620309999999990    0.2629579999999990    0.0108320000000000 Fe
   0.1312569999999990    0.8033840000000000    0.8056909999999990 Fe
   0.8378880000000000    0.4616770000000000    0.1086810000000000 Fe
   0.8791559999999990    0.3486809999999990    0.5548190000000000 Fe
   0.0785420000000000    0.9129039999999990    0.3526720000000000 Fe
   0.3707400000000000    0.8501679999999990    0.2740789999999990 Fe
   0.9206400000000001    0.5564810000000000    0.7915850000000000 Fe
   0.7523249999999990    0.8218350000000000    0.5577010000000000 Fe
   0.7074060000000000    0.3750040000000000    0.6014769999999990 O
   0.6809090000000000    0.7419870000000000    0.0259749999999990 O
   0.5256800000000000    0.5376480000000000    0.5655530000000000 O
   0.0482019999999990    0.1611840000000000    0.9908260000000000 O
   0.8665750000000000    0.5105830000000000    0.4357000000000000 O
   0.6831530000000000    0.1527980000000000    0.2411480000000000 O
   0.3179929999999990    0.8133570000000000    0.7076380000000000 O
   0.3785800000000000    0.1537929999999990    0.6662819999999990 O
   0.1651860000000000    0.5275280000000000    0.1642720000000000 O
   0.9826680000000000    0.3891230000000000    0.7079869999999990 O
   0.4809810000000000    0.2276520000000000    0.4020760000000000 O
   0.4921990000000000    0.1761680000000000    0.0574630000000000 O
   0.2270760000000000    0.7065610000000000    0.9496829999999991 O
   0.9220900000000001    0.1695470000000000    0.4910029999999990 O
   0.5077940000000000    0.3314610000000000    0.7980379999999990 O
   0.1652580000000000    0.0557439999999990    0.4487279999999990 O
   0.3102540000000000    0.9970439999999990    0.9206960000000000 O
   0.2491249999999990    0.3128740000000000    0.9393119999999990 O
   0.7636189999999990    0.6362120000000000    0.7330730000000000 O
   0.7681870000000000    0.1020460000000000    0.9696900000000001 O
   0.2112669999999990    0.9132530000000000    0.1853090000000000 O
   0.9693259999999990    0.3507320000000000    0.2162619999999990 O
   0.6994830000000000    0.0076060000000000    0.4892180000000000 O
   0.3520000000000000    0.6854460000000000    0.3947179999999990 O
   0.9143120000000000    0.6359110000000000    0.1670650000000000 O
   0.8216970000000000    0.9107719999999990    0.7354600000000000 O
   0.1021170000000000    0.3944970000000000    0.4515639999999990 O
   0.4067170000000000    0.9307240000000000    0.4673529999999990 O
   0.0637780000000000    0.6494350000000000    0.7043880000000000 O
   0.5466329999999990    0.9459770000000000    0.9047539999999999 O
   0.7015509999999990    0.4544370000000000    0.9561660000000000 O
   0.3565200000000000    0.4118830000000000    0.3708909999999990 O
   0.4862479999999990    0.6107929999999990    0.8655720000000000 O
   0.9233159999999990    0.8882409999999999    0.4740149999999990 O
   0.1084229999999990    0.9784379999999990    0.7073689999999990 O
   0.8002849999999990    0.9211260000000000    0.1849200000000000 O
   0.9902670000000000    0.0629850000000000    0.2447800000000000 O
   0.9702959999999990    0.4758739999999990    0.9651440000000000 O
   0.2235309999999990    0.2213730000000000    0.2035680000000000 O
   0.6912710000000000    0.7212660000000000    0.4027170000000000 O
   0.5238280000000000    0.9390609999999990    0.2324320000000000 O
   0.0903839999999990    0.7207290000000000    0.3223459999999990 O
   0.3005150000000000    0.4551369999999990    0.6796300000000001 O
   0.5866300000000001    0.8062739999999990    0.6584380000000000 O
   0.4196120000000000    0.7155779999999990    0.1236520000000000 O
   0.4291919999999990    0.4465800000000000    0.1005770000000000 O
   0.0180369999999990    0.8573200000000001    0.9765950000000000 O
   0.6791360000000000    0.5204630000000000    0.2245780000000000 O
