Fe32 O48
1.0
  10.6361987599999992   -0.9937432300000000   -0.1748940100000000
  -0.9928409400000000    9.7337447899999994   -0.6025409600000000
  -0.1500910700000000   -0.5807202000000000   10.6533844999999996
Fe O
32 48
direct
   0.1761887700000000    0.7917496100000000    0.0437651600000000 Fe
   0.5589054700000000    0.4463753000000000    0.8226173400000000 Fe
   0.6788752200000000    0.7943213500000000    0.7916531200000000 Fe
   0.9526528700000000    0.1581837100000000    0.4204410700000000 Fe
   0.4423270200000000    0.3783412700000000    0.3301102100000000 Fe
   0.4189345800000000    0.6962938200000001    0.8760209000000000 Fe
   0.5631274600000000    0.0530368700000000    0.7776440300000000 Fe
   0.6996345100000000    0.6952510000000000    0.0528133100000000 Fe
   0.1049673000000000    0.4322774600000000    0.5943589800000000 Fe
   0.1329958400000000    0.6649316200000001    0.7658825400000000 Fe
   0.8863796700000001    0.7625809300000000    0.2256358700000000 Fe
   0.2430839000000000    0.3516456300000000    0.9075101500000000 Fe
   0.8145466000000000    0.3172895000000000    0.6836279500000000 Fe
   0.1659056900000000    0.3402617600000000    0.3200648700000000 Fe
   0.0741252200000000    0.1609818100000000    0.0714497100000000 Fe
   0.2732269100000000    0.8829580600000000    0.6419829700000000 Fe
   0.1456485900000000    0.1503027400000000    0.6226095900000000 Fe
   0.6511866300000000    0.5547212000000000    0.5851670500000000 Fe
   0.4848433900000000    0.7544599300000000    0.5550260200000000 Fe
   0.4295657900000000    0.2118838200000000    0.0137487300000000 Fe
   0.6470536400000000    0.7068361999999990    0.3518250000000000 Fe
   0.6914391300000000    0.4113628400000000    0.1417994300000000 Fe
   0.3365847100000000    0.6096819999999999    0.1551678600000000 Fe
   0.6344306900000000    0.1748903400000000    0.3589899600000000 Fe
   0.6333279300000000    0.9827429999999990    0.0794136300000000 Fe
   0.9949737000000000    0.8594088800000000    0.8748967000000000 Fe
   0.8489264400000001    0.1141694400000000    0.8457075200000000 Fe
   0.8767154400000000    0.4427086000000000    0.4018340100000000 Fe
   0.1863438700000000    0.6597497999999991    0.3913136100000000 Fe
   0.4445403600000000    0.8747859100000001    0.3038572600000000 Fe
   0.9685242600000000    0.4739283600000000    0.9906778900000001 Fe
   0.7837069400000000    0.9460282999999990    0.5306406900000000 Fe
   0.7960666800000000    0.5673019700000000    0.4912518600000000 O
   0.7595816800000000    0.8662362100000001    0.1499680100000000 O
   0.6726358300000000    0.4071011400000000    0.6916037300000000 O
   0.9113046300000001    0.3220694900000000    0.5320890500000001 O
   0.7455894600000000    0.3255957000000000    0.2939342400000000 O
   0.7706310100000000    0.0893923600000000    0.4191439999999990 O
   0.4486363000000000    0.8730000900000000    0.7045039200000001 O
   0.4231473300000000    0.3095022800000000    0.8641947500000000 O
   0.8481815500000001    0.3902072200000000    0.0878414800000000 O
   0.9983432200000000    0.5283627500000000    0.6971145700000000 O
   0.5084585600000000    0.3402791400000000    0.1610943600000000 O
   0.5508580600000000    0.0976690500000000    0.9613917200000001 O
   0.2870365600000000    0.0708865600000000    0.6357345400000000 O
   0.0647830900000000    0.4776298900000000    0.3978080100000000 O
   0.7344600400000000    0.1074373200000000    0.6948401600000000 O
   0.3356885100000000    0.5431879200000000    0.9818575600000000 O
   0.1606606200000000    0.3216508900000000    0.7362976999999991 O
   0.0852643000000000    0.9420780200000001    0.0305610300000000 O
   0.8858282100000000    0.3127250300000000    0.8441096400000000 O
   0.5394772999999990    0.0330445400000000    0.2342210100000000 O
   0.3068881600000000    0.8064409400000000    0.1753894100000000 O
   0.8708644500000000    0.6855344500000000    0.0410649500000000 O
   0.9734373500000000    0.0477234600000000    0.5576489500000000 O
   0.0537052800000000    0.7034668100000000    0.2523642600000000 O
   0.6402021999999991    0.5082163200000001    0.9835759600000000 O
   0.6831527600000000    0.7760106800000001    0.6080169800000000 O
   0.1445763200000000    0.2669264300000000    0.4854867900000000 O
   0.5216753500000000    0.2790575100000000    0.4375602200000000 O
   0.1024999100000000    0.8475602500000000    0.7232865300000000 O
   0.0952432600000000    0.6235391600000000    0.1388799700000000 O
   0.9070200000000000    0.1096739500000000    0.0028701900000000 O
   0.1004618999999990    0.3622957000000000    0.0190229600000000 O
   0.5987197800000000    0.7929343200000000    0.9553295200000000 O
   0.3292710300000000    0.8108558100000001    0.4633484700000000 O
   0.8493384400000000    0.9178020700000000    0.8117604700000001 O
   0.5329792100000000    0.6044862500000000    0.7378035500000000 O
   0.2858350600000000    0.2420700500000000    0.2785869300000000 O
   0.0368656400000000    0.6693940400000000    0.9093701400000000 O
   0.0270795200000000    0.1949856300000000    0.2535769000000000 O
   0.8276534100000000    0.8207336800000000    0.3891714500000000 O
   0.2478843600000000    0.1850597400000000    0.9991628500000000 O
   0.7299979000000000    0.6041925600000000    0.2239957400000000 O
   0.2312059200000000    0.6199956800000000    0.6291523600000000 O
   0.5786314800000000    0.8734455999999990    0.4381196200000000 O
   0.2940849100000000    0.5059449600000000    0.2985031700000000 O
   0.2664726500000000    0.7756834200000000    0.8846341600000001 O
   0.5071340500000000    0.7056197600000000    0.2218210000000000 O
   0.5248392500000000    0.5757211200000000    0.4505450300000000 O
