Ti30 O60
1.0
  10.3627810000000000   -0.1584630000000000    0.1001990000000000
  -0.1657440000000000   10.6231390000000001   -0.3668430000000000
   0.1057550000000000   -0.3619470000000000   10.3197109999999999
Ti O
30 60
direct
   0.2321720000000000    0.1697480000000000    0.3003940000000000 Ti
   0.7840520000000000    0.0631740000000000    0.4913660000000000 Ti
   0.4902370000000000    0.7353940000000000    0.5807500000000000 Ti
   0.8072360000000000    0.7619120000000000    0.2273110000000000 Ti
   0.3252560000000000    0.4732860000000000    0.1448360000000000 Ti
   0.5081700000000000    0.2473690000000000    0.2436550000000000 Ti
   0.0337140000000000    0.5654000000000000    0.3099100000000000 Ti
   0.5878989999999999    0.5775610000000000    0.9949330000000000 Ti
   0.7489730000000000    0.4605490000000000    0.7180470000000000 Ti
   0.5410260000000000    0.2548920000000000    0.5080030000000000 Ti
   0.4030230000000000    0.0395380000000000    0.9961440000000000 Ti
   0.0074660000000000    0.3410170000000000    0.5538110000000001 Ti
   0.0918880000000000    0.4420250000000000    0.8068830000000000 Ti
   0.0653170000000000    0.8882190000000000    0.6845540000000000 Ti
   0.1191980000000000    0.2049940000000000    0.0047210000000000 Ti
   0.3245400000000000    0.6868620000000000    0.8916570000000000 Ti
   0.8350190000000000    0.3112020000000000    0.3137110000000000 Ti
   0.2287630000000000    0.1649690000000000    0.5999090000000000 Ti
   0.5482160000000000    0.1762240000000000    0.7622980000000000 Ti
   0.5807000000000000    0.5266140000000000    0.3245760000000000 Ti
   0.9008280000000000    0.0670790000000000    0.1567400000000000 Ti
   0.7899350000000001    0.7307650000000000    0.5273560000000000 Ti
   0.8540320000000000    0.0612510000000000    0.8189760000000000 Ti
   0.2800120000000000    0.8782320000000000    0.4261010000000000 Ti
   0.0129710000000000    0.7779520000000000    0.9398110000000000 Ti
   0.6582770000000000    0.2776640000000000    0.0049290000000000 Ti
   0.2123710000000000    0.8735170000000000    0.1243140000000000 Ti
   0.2025300000000000    0.6340620000000000    0.6119410000000000 Ti
   0.8754960000000001    0.5375259999999999    0.0509790000000000 Ti
   0.6868960000000000    0.7802170000000000    0.8469490000000000 Ti
   0.9782459999999999    0.9232120000000000    0.8426080000000000 O
   0.2178380000000000    0.7985380000000000    0.2766520000000000 O
   0.8039539999999999    0.9159640000000000    0.1567000000000000 O
   0.6499840000000000    0.2080840000000000    0.3560830000000000 O
   0.4095180000000000    0.7527930000000000    0.7557800000000000 O
   0.4040640000000000    0.2065800000000000    0.6408360000000000 O
   0.7926460000000000    0.2103780000000000    0.1375910000000000 O
   0.2436570000000000    0.5537120000000000    0.7894130000000000 O
   0.7041130000000000    0.6235640000000000    0.1532880000000000 O
   0.5350590000000000    0.1390640000000000    0.0970160000000000 O
   0.4873570000000000    0.0374500000000000    0.8356160000000000 O
   0.1481830000000000    0.2497830000000000    0.4544850000000000 O
   0.6396150000000000    0.5808100000000000    0.8209689999999999 O
   0.2203810000000000    0.0379310000000000    0.4373280000000000 O
   0.6112930000000000    0.6617700000000000    0.4434040000000000 O
   0.2559960000000000    0.1114860000000000    0.9501050000000000 O
   0.9083670000000000    0.3816170000000000    0.7335090000000000 O
   0.0504370000000000    0.9221560000000000    0.0780820000000000 O
   0.7627969999999999    0.8956330000000000    0.4336140000000000 O
   0.7325580000000000    0.9487430000000000    0.8684720000000000 O
   0.5066750000000000    0.3994900000000000    0.4131550000000000 O
   0.4076260000000000    0.1811110000000000    0.3818600000000000 O
   0.9301880000000000    0.8019720000000000    0.6003540000000001 O
   0.1785590000000000    0.7238950000000000    0.0065300000000000 O
   0.6321150000000000    0.1127130000000000    0.5852420000000000 O
   0.9976440000000000    0.5522960000000000    0.9169100000000000 O
   0.4456940000000000    0.8606660000000000    0.4813010000000000 O
   0.1224110000000000    0.2792200000000000    0.6934540000000000 O
   0.3227460000000000    0.3025640000000000    0.2032770000000000 O
   0.5783530000000000    0.7473160000000000    0.9881640000000000 O
   0.9272870000000000    0.4332620000000000    0.1602950000000000 O
   0.9604279999999999    0.1429620000000000    0.9519840000000001 O
   0.1583830000000000    0.3594220000000000    0.9503720000000000 O
   0.0812890000000000    0.4997580000000000    0.6254480000000000 O
   0.1200220000000000    0.7518049999999999    0.7759670000000000 O
   0.8811920000000000    0.6783790000000000    0.3632760000000000 O
   0.7355820000000000    0.4380590000000000    0.9673890000000001 O
   0.0852740000000000    0.1768530000000000    0.1815130000000000 O
   0.5153470000000000    0.2913930000000000    0.9010710000000000 O
   0.8903300000000000    0.0930030000000000    0.3278550000000000 O
   0.7391150000000000    0.4419870000000000    0.3322300000000000 O
   0.1714840000000000    0.0347390000000000    0.6867840000000000 O
   0.9479000000000000    0.6970170000000000    0.1316070000000000 O
   0.6195830000000000    0.3509850000000000    0.6515960000000000 O
   0.9873170000000000    0.4154640000000000    0.3882510000000000 O
   0.7223550000000000    0.1880300000000000    0.8495880000000000 O
   0.8853600000000000    0.0530670000000000    0.6403280000000000 O
   0.3617910000000000    0.8712120000000000    0.0019610000000000 O
   0.8392690000000000    0.7276520000000000    0.9072060000000000 O
   0.4276130000000000    0.5750380000000000    0.2473290000000000 O
   0.1952690000000000    0.8114209999999999    0.5613310000000000 O
   0.7936490000000000    0.5672630000000000    0.6001880000000001 O
   0.1323790000000000    0.6152660000000000    0.4371000000000000 O
   0.4042040000000000    0.5554150000000000    0.9886260000000000 O
   0.5656570000000000    0.3872210000000000    0.1478100000000000 O
   0.6567740000000000    0.7802350000000000    0.6632990000000000 O
   0.8539340000000000    0.2612080000000000    0.4969510000000000 O
   0.2944460000000000    0.0303510000000000    0.1864490000000000 O
   0.3657290000000000    0.6060500000000000    0.5513810000000000 O
   0.1724290000000000    0.5253420000000000    0.1889180000000000 O
