Ti4 O8
1.0
   3.1357620000000002   -5.7698359999999997    0.0000000000000000
   3.1357620000000002    5.7698359999999997    0.0000000000000000
   0.0000000000000000    0.0000000000000000   10.4635350000000003
Ti O
4 8
direct
   0.7542030000000000    0.2457970000000000    0.0004580000000000 Ti
   0.7462830000000000    0.7462830000000000    0.0573240000000000 Ti
   0.2457970000000000    0.7542030000000000    0.0004580000000000 Ti
   0.2537170000000000    0.2537170000000000    0.0573240000000000 Ti
   0.1189140000000000    0.3905060000000000    0.9617630000000000 O
   0.0000000000000000    0.0000000000000000    0.1394560000000000 O
   0.7563080000000000    0.2436920000000000    0.1560370000000000 O
   0.8810860000000000    0.6094940000000000    0.9617630000000000 O
   0.2436920000000000    0.7563080000000000    0.1560370000000000 O
   0.3905060000000000    0.1189140000000000    0.9617630000000000 O
   0.6094940000000000    0.8810860000000000    0.9617630000000000 O
   0.5000000000000000    0.5000000000000000    0.1473520000000000 O
