Fe16 O24
1.0
  -4.7780570000000004    4.7780570000000004    4.7780570000000004
   4.7780570000000004   -4.7780570000000004    4.7780570000000004
   4.7780570000000004    4.7780570000000004   -4.7780570000000004
Fe O
16 24
direct
   0.2500000000000000    0.2119390000000000    0.9619390000000000 Fe
   0.2880610000000000    0.5380610000000000    0.7500000000000000 Fe
   0.7500000000000000    0.7880610000000000    0.0380610000000000 Fe
   0.0380610000000000    0.7500000000000000    0.7880610000000000 Fe
   0.2500000000000000    0.7119390000000000    0.4619390000000000 Fe
   0.9619390000000000    0.2500000000000000    0.2119390000000000 Fe
   0.5380610000000000    0.7500000000000000    0.2880610000000000 Fe
   0.4619390000000000    0.2500000000000000    0.7119390000000000 Fe
   0.0000000000000000    0.0000000000000000    0.5000000000000000 Fe
   0.7500000000000000    0.2880610000000000    0.5380610000000000 Fe
   0.2119390000000000    0.9619390000000000    0.2500000000000000 Fe
   0.7880610000000000    0.0380610000000000    0.7500000000000000 Fe
   0.7119390000000000    0.4619390000000000    0.2500000000000000 Fe
   0.5000000000000000    0.0000000000000000    0.0000000000000000 Fe
   0.5000000000000000    0.5000000000000000    0.5000000000000000 Fe
   0.0000000000000000    0.5000000000000000    0.0000000000000000 Fe
   0.2735820000000000    0.0064979999999990    0.0475620000000000 O
   0.2670840000000000    0.7735820000000000    0.7260190000000000 O
   0.7260190000000000    0.2670840000000000    0.7735820000000000 O
   0.0475620000000000    0.2735820000000000    0.0064979999999990 O
   0.4935020000000000    0.7670840000000000    0.0410639999999990 O
   0.0064979999999990    0.0475620000000000    0.2735820000000000 O
   0.2260190000000000    0.4524380000000000    0.4589359999999990 O
   0.5475620000000000    0.5410640000000000    0.7739809999999990 O
   0.5064980000000000    0.2329159999999990    0.9589360000000000 O
   0.2329159999999990    0.9589360000000000    0.5064980000000000 O
   0.5410640000000000    0.7739809999999990    0.5475620000000000 O
   0.9589360000000000    0.5064980000000000    0.2329159999999990 O
   0.9524380000000000    0.7264180000000000    0.9935020000000000 O
   0.0410639999999990    0.4935020000000000    0.7670840000000000 O
   0.7329160000000000    0.2264179999999990    0.2739810000000000 O
   0.7739809999999990    0.5475620000000000    0.5410640000000000 O
   0.4524380000000000    0.4589359999999990    0.2260190000000000 O
   0.7670840000000000    0.0410639999999990    0.4935020000000000 O
   0.4589359999999990    0.2260190000000000    0.4524380000000000 O
   0.7735820000000000    0.7260190000000000    0.2670840000000000 O
   0.9935020000000000    0.9524380000000000    0.7264180000000000 O
   0.2264179999999990    0.2739810000000000    0.7329160000000000 O
   0.7264180000000000    0.9935020000000000    0.9524380000000000 O
   0.2739810000000000    0.7329160000000000    0.2264179999999990 O
