Fe64 O96
1.0
   8.4762904100000007   -0.0006181700000000   -0.0049357700000000
  -0.0006742000000000    8.4563781999999996    0.0001087100000000
  -0.0151360400000000    0.0000560900000000   25.2907864199999999
Fe O
64 96
direct
   0.9889685500000001    0.6165532400000000    0.2075645400000000 Fe
   0.0005863200000000    0.1251693600000000    0.3747491900000000 Fe
   0.0022298600000000    0.6206842100000000    0.5402911000000000 Fe
   0.0099124600000000    0.6244694200000001    0.8728878400000000 Fe
   0.0014293400000000    0.8857915700000000    0.1215523600000000 Fe
   0.0085714900000000    0.8635682000000000    0.4586282500000000 Fe
   0.0038744300000000    0.8741707800000000    0.7912547300000000 Fe
   0.1239283600000000    0.7515910500000000    0.3317275400000000 Fe
   0.1289254900000000    0.7421846999999990    0.6676148800000000 Fe
   0.1196681700000000    0.7494497700000000    0.9995495800000000 Fe
   0.1252352700000000    0.2509478400000000    0.1684370100000000 Fe
   0.1303299000000000    0.2524274200000000    0.5011908300000000 Fe
   0.1238549500000000    0.2405249700000000    0.8345262300000000 Fe
   0.2430894900000000    0.3651202600000000    0.0411265400000000 Fe
   0.2505578900000000    0.3836859400000000    0.3767526600000000 Fe
   0.2388236300000000    0.3759714100000000    0.7112839100000000 Fe
   0.2519456400000000    0.6252414300000000    0.1242041500000000 Fe
   0.2519269200000000    0.1261900400000000    0.2920138100000000 Fe
   0.2419537100000000    0.1225901000000000    0.6268435100000000 Fe
   0.2483958200000000    0.1200894600000000    0.9604396100000000 Fe
   0.2567786600000000    0.8745832300000000    0.2114622700000000 Fe
   0.2518657100000000    0.8721284800000000    0.5411876900000000 Fe
   0.2559361300000000    0.8682031600000000    0.8752849800000000 Fe
   0.3764676700000000    0.4914208300000000    0.2494928900000000 Fe
   0.3648110400000000    0.4992600400000000    0.5828929700000001 Fe
   0.3796724999999990    0.5007775500000000    0.9200443200000000 Fe
   0.3872604400000000    0.9973916800000000    0.0820444900000000 Fe
   0.3725165000000000   -0.0000925500000000    0.4181628600000000 Fe
   0.3720173000000000    0.0002193600000000    0.7514665800000000 Fe
   0.5026004500000000    0.6268263600000000    0.0411776500000000 Fe
   0.4933330999999990    0.6315487700000000    0.3748293900000000 Fe
   0.4982709800000000    0.6255851500000000    0.7081832300000001 Fe
   0.4988373500000000    0.8738510400000000    0.6251513900000000 Fe
   0.5029033100000000    0.3770445800000000    0.1249190300000000 Fe
   0.4994060500000000    0.3844417900000000    0.4622548100000000 Fe
   0.4899052000000000    0.3817741600000000    0.7920240900000001 Fe
   0.5099443800000000    0.1292743200000000    0.2118581900000000 Fe
   0.4984137100000000    0.1250865100000000    0.5416902300000001 Fe
   0.5043771900000000    0.1143834500000000    0.8781507500000000 Fe
   0.6243392300000000    0.2500835600000000    0.0019315700000000 Fe
   0.6261448300000000    0.2567533600000000    0.3333288200000000 Fe
   0.6203908900000000    0.2515512700000000    0.6665208500000001 Fe
   0.6244966700000000    0.7562533100000001    0.1657972400000000 Fe
   0.6280284700000001    0.7535367400000000    0.4988258100000000 Fe
   0.6261612300000000    0.7472992800000000    0.8322129100000000 Fe
   0.7427933000000000    0.6198442300000000    0.2893574200000000 Fe
   0.7465715300000000    0.6156883600000000    0.6214092999999991 Fe
   0.7486418300000001    0.6287845500000000    0.9591152400000000 Fe
   0.7483988200000000    0.8751588400000000    0.0399592200000000 Fe
   0.7398350600000000    0.8787273999999990    0.3722558700000000 Fe
   0.7623777800000000    0.8784576800000000    0.7082392700000000 Fe
   0.7495934800000000    0.3762191000000000    0.8766327400000000 Fe
   0.7528444600000000    0.1324365400000000    0.1240501000000000 Fe
   0.7509356400000000    0.1303854700000000    0.4616962200000000 Fe
   0.7573920500000000    0.1274745600000000    0.7895125800000000 Fe
   0.8704419000000000    0.4967871900000000    0.0809635300000000 Fe
   0.8693757999999990    0.4995460500000000    0.4171714600000000 Fe
   0.8739747200000000    0.5078182500000000    0.7489724999999990 Fe
   0.8790705300000000    0.9981581800000000    0.2482900700000000 Fe
   0.8733314800000000    0.9970064999999991    0.5820498100000000 Fe
   0.8812502300000000    0.9989883600000000    0.9195451800000001 Fe
   0.9991029100000001    0.3729486500000000    0.2914206300000000 Fe
   0.9902172300000001    0.3668273100000000    0.6238538000000000 Fe
   0.9976754800000001    0.3746181900000000    0.9586566000000000 Fe
   0.0075784900000000    0.6257107700000000    0.1277586200000000 O
   0.9864334300000001    0.6304719600000001    0.4637542400000000 O
   0.9850263600000000    0.6414433200000000    0.7963242600000000 O
   0.0113145400000000    0.3903753200000000    0.0353356200000000 O
   0.0087564500000000    0.3677764000000000    0.3713143900000000 O
   0.0102527400000000    0.3988660000000000    0.7043200500000000 O
   0.0124786200000000    0.1385905800000000    0.2939495100000000 O
   0.0082236400000000    0.1362975600000000    0.6182444900000000 O
   0.0060738300000000    0.1493151700000000    0.9539376500000000 O
   0.0121416200000000    0.8621640400000000    0.2037115500000000 O
   0.0152614500000000    0.8666040600000000    0.5394697900000001 O
   0.0071807000000000    0.8659759900000000    0.8706501700000000 O
   0.2353421000000000    0.3607264700000000    0.2943882900000000 O
   0.2397707200000000    0.3636849000000000    0.6284523000000000 O
   0.2347158400000000    0.3682217200000000    0.9607311400000000 O
   0.2447081300000000    0.6340774300000001    0.2054063900000000 O
   0.2428015800000000    0.6469239200000000    0.5461890600000000 O
   0.2422687100000000    0.6356739900000000    0.8818584400000000 O
   0.2406605700000000    0.8672761600000000    0.1255857800000000 O
   0.2393416800000000    0.8874700000000001    0.4645401600000000 O
   0.2306006000000000    0.8912088100000001    0.7958644700000000 O
   0.2682814400000000    0.1312855700000000    0.0365687100000000 O
   0.2421746000000000    0.1316698600000000    0.3699194200000000 O
   0.2700225300000000    0.1382025900000000    0.7036500200000000 O
   0.2345594300000000    0.8963523600000001    0.2888815200000000 O
   0.2572897400000000    0.8822551900000000    0.6211226300000000 O
   0.2284058400000000    0.8907548700000000    0.9554479400000000 O
   0.2660200800000000    0.6188528900000000    0.0437337800000000 O
   0.2604912800000000    0.6165067900000000    0.3693915200000000 O
   0.2715826000000000    0.6108642100000000    0.7032615700000000 O
   0.2610136400000000    0.3819916100000000    0.1215447300000000 O
   0.2616446600000000    0.3589483500000000    0.4531770900000000 O
   0.2565414400000000    0.3558353300000000    0.7887029999999990 O
   0.2556829700000000    0.1169281100000000    0.2132898100000000 O
   0.2634211300000000    0.1089023600000000    0.5443764400000000 O
   0.2606377200000000    0.1169875100000000    0.8811949800000001 O
   0.4918067600000000    0.3913345000000000    0.0461789500000000 O
   0.4897667400000000    0.3820343600000000    0.3780956800000000 O
   0.4922503100000000    0.3899394900000000    0.7104713700000000 O
   0.4834404700000000    0.1483741300000000    0.2882961400000000 O
   0.4913201900000000    0.1148392500000000    0.6195703500000000 O
   0.4912506900000000    0.1491532300000000    0.9538985800000001 O
   0.4847451200000000    0.8900621800000000    0.2021587500000000 O
   0.4859623200000000    0.8844616900000000    0.5437442000000000 O
   0.4894448100000000    0.8821975900000000    0.8699420999999991 O
   0.4954443400000000    0.6122051900000001    0.1209968400000000 O
   0.5171553400000000    0.6132781800000000    0.4546345500000000 O
   0.5151112400000000    0.6138099600000000    0.7850739999999991 O
   0.4870223800000000    0.3653661500000000    0.2007486700000000 O
   0.4807568400000000    0.3571365700000000    0.5395488400000000 O
   0.5090993600000000    0.3728672400000000    0.8715295100000000 O
   0.5074881600000000    0.6318731900000000    0.6279933900000000 O
   0.5128071500000000    0.6042937200000000    0.2948734700000000 O
   0.5192313000000000    0.6120753300000000    0.9648672500000001 O
   0.5182721000000000    0.8538206400000000    0.0460711200000000 O
   0.5077765400000001    0.8655450600000000    0.3796128600000000 O
   0.5041552300000001    0.8599083200000001    0.7059093800000000 O
   0.5041753800000001    0.1424157000000000    0.1277102800000000 O
   0.5092462000000000    0.1308811000000000    0.4626250700000000 O
   0.5112791600000001    0.1354246300000000    0.7957710900000000 O
   0.7375472400000000    0.6355277500000001    0.0377079700000000 O
   0.7436081800000001    0.6367874000000000    0.3715769500000000 O
   0.7330488700000000    0.6362228400000001    0.7043038300000000 O
   0.7332412600000000    0.3656520800000000    0.1198108000000000 O
   0.7372367200000001    0.3595297300000000    0.4531734600000000 O
   0.7462584700000000    0.3664620600000000    0.7950090500000000 O
   0.7392324800000000    0.1089735500000000    0.2040045100000000 O
   0.7292238900000000    0.1094669100000000    0.5391313400000000 O
   0.7412692800000000    0.1335603100000000    0.8741262500000000 O
   0.7408229400000000    0.8674549700000000    0.6285688900000000 O
   0.7704853600000000    0.8663157800000000    0.2959636800000000 O
   0.7661014900000001    0.8583791000000000    0.9634672100000000 O
   0.7315632200000001    0.1048027800000000    0.0449920300000000 O
   0.7580036500000000    0.1169088200000000    0.3764111800000000 O
   0.7328968600000000    0.1114891600000000    0.7114770900000000 O
   0.7607918800000000    0.3832400500000000    0.6295270800000000 O
   0.7626105000000000    0.3881564600000000    0.9570985900000000 O
   0.7723008000000000    0.3846904900000000    0.2964475900000000 O
   0.7581956600000000    0.6410654900000000    0.2114395300000000 O
   0.7592744000000000    0.6440759300000000    0.5457366700000000 O
   0.7554603000000000    0.6177478800000000    0.8806460300000000 O
   0.7585657300000000    0.8828533800000000    0.1193672300000000 O
   0.7637627400000000    0.8868717700000001    0.4544762000000000 O
   0.7639618900000000    0.8827622300000000    0.7892997800000000 O
   0.9931221700000000    0.6089010100000000    0.2893322100000000 O
   0.9910140300000000    0.6182946500000001    0.6199836200000000 O
   0.9850117500000001    0.6113498400000000    0.9553697500000000 O
   0.9805980500000000    0.8568920200000000    0.0452909900000000 O
   0.9961368800000000    0.8837379300000000    0.3790909500000000 O
   0.9946031600000000    0.8563341800000001    0.7137228800000001 O
   0.9893842900000001    0.1191656700000000    0.1289493700000000 O
   0.9914741100000001    0.1200114300000000    0.4560241600000000 O
   0.9871316900000000    0.1066532400000000    0.7963957600000000 O
   0.0135552000000000    0.3850044600000000    0.2147906400000000 O
   0.0200430500000000    0.3906779500000000    0.5453663600000000 O
   0.9918418700000000    0.3840091500000000    0.8788635400000000 O
