Fe32 O48
1.0
  10.3016970000000008    0.4999289999999990    0.5707789999999990
   0.4798400000000000   10.3174170000000007    0.3697500000000000
   0.5790710000000000    0.3864450000000000   10.0138259999999999
Fe O
32 48
direct
   0.3387969999999990    0.5973889999999999    0.9501670000000000 Fe
   0.5195200000000001    0.3666160000000000    0.8646929999999990 Fe
   0.5367900000000000    0.8262360000000000    0.8455819999999999 Fe
   0.8867269999999990    0.1168480000000000    0.4476200000000000 Fe
   0.4977749999999990    0.4076390000000000    0.2138950000000000 Fe
   0.4337649999999990    0.5508360000000000    0.5028190000000000 Fe
   0.5338780000000000    0.0851919999999990    0.8050910000000000 Fe
   0.6927200000000000    0.5702410000000000    0.9849739999999991 Fe
   0.1043849999999990    0.5948860000000000    0.4676229999999990 Fe
   0.1638200000000000    0.6589140000000000    0.7310000000000000 Fe
   0.8963089999999990    0.7376800000000000    0.3050690000000000 Fe
   0.2970980000000000    0.3654389999999990    0.7449260000000000 Fe
   0.7728149999999990    0.3389400000000000    0.7203790000000000 Fe
   0.2457200000000000    0.2911040000000000    0.4219270000000000 Fe
   0.0750930000000000    0.1479770000000000    0.1602220000000000 Fe
   0.0390400000000000    0.9200640000000000    0.6835589999999990 Fe
   0.0567000000000000    0.2304540000000000    0.7100810000000000 Fe
   0.8075780000000000    0.6201930000000000    0.6882849999999990 Fe
   0.3688900000000001    0.8584700000000001    0.6478470000000000 Fe
   0.2397560000000000    0.0947969999999990    0.8950500000000001 Fe
   0.5781379999999990    0.7829290000000000    0.3520010000000000 Fe
   0.8519329999999991    0.4297360000000000    0.1794039999999990 Fe
   0.4230900000000000    0.7280050000000000    0.1606820000000000 Fe
   0.6266100000000000    0.1453829999999990    0.2962780000000000 Fe
   0.6957230000000000    0.9315760000000000    0.0934570000000000 Fe
   0.9791259999999991    0.8884989999999990    0.9844710000000000 Fe
   0.8332640000000000    0.1445850000000000    0.9548049999999991 Fe
   0.9095810000000000    0.4019560000000000    0.4441879999999990 Fe
   0.1715950000000000    0.9115690000000000    0.3738550000000000 Fe
   0.3825880000000000    0.0609479999999990    0.2170830000000000 Fe
   0.0302110000000000    0.4159029999999990    0.9395080000000000 Fe
   0.7206669999999999    0.9043779999999990    0.5767630000000000 Fe
   0.7861939999999999    0.4722019999999990    0.5781080000000000 O
   0.8767220000000000    0.8369310000000000    0.1431700000000000 O
   0.6827820000000000    0.4841530000000000    0.8259660000000000 O
   0.9226240000000000    0.2398130000000000    0.5828940000000000 O
   0.8515779999999999    0.2834919999999990    0.3297029999999990 O
   0.7135270000000000    0.0682520000000000    0.4444519999999990 O
   0.3555419999999990    0.9519019999999990    0.8252959999999990 O
   0.3950789999999990    0.2149589999999990    0.8366540000000000 O
   0.0190740000000000    0.3296429999999990    0.1154149999999990 O
   0.0039920000000000    0.6252080000000000    0.6393529999999999 O
   0.4856870000000000    0.2130240000000000    0.1964739999999990 O
   0.5607970000000000    0.9636290000000000    0.9617230000000000 O
   0.1057910000000000    0.0562130000000000    0.7600969999999990 O
   0.0962990000000000    0.4220290000000000    0.4095169999999990 O
   0.6696580000000000    0.2053549999999990    0.8133060000000000 O
   0.4556030000000000    0.4400449999999990    0.6724960000000000 O
   0.2181110000000000    0.2821349999999990    0.6116070000000000 O
   0.0160830000000000    0.0650470000000000    0.0163880000000000 O
   0.9066210000000000    0.2994190000000000    0.8468789999999990 O
   0.5614580000000000    0.9783800000000000    0.2764040000000000 O
   0.3353129999999990    0.8765539999999991    0.2619849999999990 O
   0.8835660000000000    0.5394010000000000    0.9998459999999991 O
   0.8958159999999999    0.9615830000000000    0.5837140000000000 O
   0.0676770000000000    0.7567189999999990    0.3629830000000000 O
   0.6747860000000000    0.4415190000000000    0.1296500000000000 O
   0.7051500000000001    0.7783089999999990    0.7431120000000000 O
   0.3822850000000000    0.3994720000000000    0.3864450000000000 O
   0.6038370000000000    0.3094050000000000    0.3635250000000000 O
   0.0567390000000000    0.7944859999999990    0.8334340000000000 O
   0.2681960000000000    0.6837759999999991    0.0995730000000000 O
   0.7423839999999990    0.1146170000000000    0.1268350000000000 O
   0.1501220000000000    0.2752179999999990    0.8624149999999990 O
   0.5170020000000000    0.6782290000000000    0.9711280000000000 O
   0.1998140000000000    0.8755550000000000    0.5655589999999990 O
   0.8235600000000001    0.9680369999999990    0.9118339999999990 O
   0.4751729999999990    0.7438810000000000    0.5220040000000000 O
   0.2609519999999990    0.1163289999999990    0.3665489999999990 O
   0.1904100000000000    0.5127130000000000    0.8629350000000000 O
   0.0290309999999990    0.0418469999999990    0.3226850000000000 O
   0.7451320000000000    0.7871509999999990    0.4293380000000000 O
   0.2535120000000000    0.1025809999999990    0.0867520000000000 O
   0.8839290000000000    0.5533279999999990    0.3052030000000000 O
   0.2518840000000000    0.5871480000000000    0.5620780000000000 O
   0.5449060000000000    0.9630019999999990    0.6598790000000000 O
   0.4281049999999990    0.4400909999999990    0.0327110000000000 O
   0.3379180000000000    0.7097930000000000    0.7753460000000000 O
   0.6266920000000000    0.7648360000000000    0.1602230000000000 O
   0.4844480000000000    0.6080759999999999    0.3090130000000000 O
