Ti30 O60
1.0
  10.2691839999999992    0.0890860000000000    0.0308070000000000
   0.0930650000000000   10.5798930000000002   -0.0440040000000000
   0.0363170000000000   -0.0445870000000000   10.5687979999999992
Ti O
30 60
direct
   0.2026720000000000    0.3449180000000000    0.3663960000000000 Ti
   0.8230160000000000    0.0710450000000000    0.5591790000000000 Ti
   0.5297250000000000    0.7764080000000000    0.4183620000000000 Ti
   0.7568310000000000    0.6827610000000000    0.1785370000000000 Ti
   0.3468190000000000    0.3736690000000000    0.1063880000000000 Ti
   0.4464790000000000    0.0186320000000000    0.2109620000000000 Ti
   0.0276070000000000    0.5914270000000000    0.4026440000000000 Ti
   0.6933880000000000    0.5222110000000000    0.8965260000000000 Ti
   0.7737640000000000    0.5813350000000000    0.5766160000000000 Ti
   0.6410420000000000    0.3498750000000000    0.6513240000000000 Ti
   0.2291240000000000    0.0870350000000000    0.9384420000000000 Ti
   0.9628340000000000    0.3177330000000000    0.5766510000000000 Ti
   0.1469850000000000    0.4242080000000000    0.8364850000000000 Ti
   0.3018500000000000    0.8712220000000001    0.6753410000000000 Ti
   0.9344090000000000    0.2570060000000000    0.0228350000000000 Ti
   0.4322750000000000    0.7139880000000000    0.0317910000000000 Ti
   0.8219840000000000    0.3267550000000000    0.3284300000000000 Ti
   0.2966930000000000    0.2589270000000000    0.6575790000000000 Ti
   0.5451510000000001    0.0890340000000000    0.7009590000000000 Ti
   0.5169470000000000    0.4911780000000000    0.3507630000000000 Ti
   0.6789580000000000    0.9462050000000000    0.0372220000000000 Ti
   0.0122450000000000    0.8502550000000000    0.5471400000000000 Ti
   0.8925880000000000    0.9822230000000000    0.8499070000000000 Ti
   0.3112100000000000    0.0352310000000000    0.4533660000000000 Ti
   0.1304310000000000    0.7613290000000000    0.8781580000000000 Ti
   0.6358410000000000    0.2168460000000000    0.9910000000000000 Ti
   0.1940380000000000    0.7980680000000000    0.2367510000000000 Ti
   0.3164250000000000    0.5555050000000000    0.5718930000000000 Ti
   0.9961510000000000    0.5811320000000000    0.0724860000000000 Ti
   0.6565790000000000    0.8213960000000000    0.7106850000000000 Ti
   0.2347200000000000    0.9425559999999999    0.8385930000000000 O
   0.0982860000000000    0.7597990000000000    0.3801760000000000 O
   0.5264489999999999    0.8618220000000000    0.0305420000000000 O
   0.7903100000000000    0.2166840000000000    0.4569610000000000 O
   0.3053700000000000    0.7187900000000000    0.9196569999999999 O
   0.4838040000000000    0.2564460000000000    0.6338620000000000 O
   0.6104210000000000    0.0889660000000000    0.1244610000000000 O
   0.2508440000000000    0.4372360000000000    0.9791140000000000 O
   0.8198260000000001    0.6070060000000000    0.0226360000000000 O
   0.4397680000000000    0.1120110000000000    0.3528330000000000 O
   0.4990910000000000    0.8728300000000000    0.7514760000000000 O
   0.3139050000000000    0.4406540000000000    0.7074140000000000 O
   0.5882570000000000    0.4266990000000000    0.7951750000000000 O
   0.0305810000000000    0.2967180000000000    0.4089770000000000 O
   0.6296240000000000    0.6437680000000000    0.2961820000000000 O
   0.0686210000000000    0.1335250000000000    0.0061780000000000 O
   0.8244089999999999    0.4220910000000000    0.6624920000000000 O
   0.9968070000000000    0.8785420000000000    0.9290050000000000 O
   0.9133690000000000    0.9593520000000000    0.4514450000000000 O
   0.7374570000000000    0.8907630000000000    0.8683880000000000 O
   0.3628320000000000    0.4145340000000000    0.4423660000000000 O
   0.2419700000000000    0.1992610000000000    0.4946120000000000 O
   0.1748630000000000    0.9365420000000000    0.5491600000000000 O
   0.1028490000000000    0.7366380000000000    0.1008130000000000 O
   0.7067540000000000    0.1874650000000000    0.6870170000000000 O
   0.0648890000000000    0.5897860000000000    0.8923610000000000 O
   0.5391200000000000    0.8883130000000000    0.2852790000000000 O
   0.1127320000000000    0.3462180000000000    0.6589800000000000 O
   0.2527750000000000    0.2753220000000000    0.2187130000000000 O
   0.5675030000000000    0.5971560000000000    0.9923310000000000 O
   0.9976090000000000    0.4185920000000000    0.0992830000000000 O
   0.8101900000000000    0.1056860000000000    0.9632740000000000 O
   0.0086990000000000    0.3353650000000000    0.8763350000000000 O
   0.3458670000000000    0.7035270000000000    0.6573570000000000 O
   0.1157030000000000    0.7779199999999999    0.7102820000000000 O
   0.9154440000000000    0.6929780000000000    0.5393280000000000 O
   0.7533609999999999    0.3534290000000000    0.9689430000000000 O
   0.8621990000000000    0.2389630000000000    0.1860030000000000 O
   0.2569160000000000    0.2220590000000000    0.8261540000000001 O
   0.7743660000000000    0.8511620000000000    0.1444830000000000 O
   0.6568370000000000    0.3855380000000000    0.2972770000000000 O
   0.3648490000000000    0.0630070000000000    0.6472980000000000 O
   0.9109150000000000    0.6364530000000000    0.2433180000000000 O
   0.6213170000000000    0.4845600000000000    0.5300340000000000 O
   0.8781140000000000    0.4791910000000000    0.4376950000000000 O
   0.5572580000000000    0.1127880000000000    0.8708939999999999 O
   0.9030720000000000    0.9299840000000000    0.6830510000000000 O
   0.3398850000000000    0.0622510000000000    0.0663530000000000 O
   0.7277169999999999    0.6418920000000000    0.7550420000000000 O
   0.4249550000000000    0.4912980000000000    0.2024480000000000 O
   0.4140210000000000    0.8861430000000000    0.5043010000000000 O
   0.6558460000000000    0.7374230000000001    0.5458310000000000 O
   0.1454740000000000    0.5600390000000000    0.5360940000000000 O
   0.3491530000000000    0.7284670000000000    0.1852310000000000 O
   0.4906190000000000    0.3000230000000000    0.0379610000000000 O
   0.6654830000000000    0.9769330000000001    0.6101180000000000 O
   0.9525240000000000    0.1584180000000000    0.6420200000000000 O
   0.2641030000000000    0.9554510000000001    0.2884790000000000 O
   0.4232260000000000    0.6382780000000000    0.4311350000000000 O
   0.1385800000000000    0.5021780000000000    0.2986050000000000 O
