Fe8 O12
1.0
   5.1727109999999996    0.0000000000000000    0.0000000000000000
   0.0000000000000000    5.3247350000000004    0.0000000000000000
   0.0000000000000000    0.0000000000000000    7.5244409999999995
Fe O
8 12
direct
   0.2483449999999990    0.5313720000000000    0.1120300000000000 Fe
   0.2516549999999990    0.0313720000000000    0.3879700000000000 Fe
   0.2516549999999990    0.4686280000000000    0.6120300000000001 Fe
   0.2483449999999990    0.9686279999999990    0.8879700000000000 Fe
   0.7516550000000000    0.4686280000000000    0.8879700000000000 Fe
   0.7483449999999990    0.9686279999999990    0.6120300000000001 Fe
   0.7483449999999990    0.5313720000000000    0.3879700000000000 Fe
   0.7516550000000000    0.0313720000000000    0.1120300000000000 Fe
   0.3927210000000000    0.6030650000000000    0.8466870000000000 O
   0.1072790000000000    0.1030649999999990    0.6533129999999990 O
   0.1072790000000000    0.3969350000000000    0.3466869999999990 O
   0.3927210000000000    0.8969349999999990    0.1533130000000000 O
   0.6072790000000000    0.3969350000000000    0.1533130000000000 O
   0.8927210000000000    0.8969349999999990    0.3466869999999990 O
   0.8927210000000000    0.6030650000000000    0.6533129999999990 O
   0.6072790000000000    0.1030649999999990    0.8466870000000000 O
   0.9519100000000000    0.7500000000000000    0.0000000000000000 O
   0.5480900000000001    0.2500000000000000    0.5000000000000000 O
   0.0480900000000000    0.2500000000000000    0.0000000000000000 O
   0.4519100000000000    0.7500000000000000    0.5000000000000000 O
