Ni O
1.0
        4.1683998108         0.0000000000         0.0000000000
        0.0000000000         4.1683998108         0.0000000000
        0.0000000000         0.0000000000         4.1683998108
   Ni    O
    4    4
Cartesian
     2.084199905         2.084199905         2.084199905
     2.084199905         0.000000000         0.000000000
     0.000000000         2.084199905         0.000000000
     0.000000000         0.000000000         2.084199905
     0.000000000         0.000000000         0.000000000
     0.000000000         2.084199905         2.084199905
     2.084199905         0.000000000         2.084199905
     2.084199905         2.084199905         0.000000000
