Ti30 O60
1.0
  10.5569509999999998    0.6257610000000000    0.5754230000000000
   0.6142170000000000   10.7672249999999998   -0.0121430000000000
   0.5604250000000000   -0.0142850000000000   10.4711800000000004
Ti O
30 60
direct
   0.1795260000000000    0.3479380000000000    0.3851670000000000 Ti
   0.8558280000000000    0.1008690000000000    0.5268590000000000 Ti
   0.5225649999999999    0.8065250000000000    0.6430230000000000 Ti
   0.7534459999999999    0.7909490000000000    0.1992930000000000 Ti
   0.2955110000000000    0.4398120000000000    0.0734150000000000 Ti
   0.4221490000000000    0.1631410000000000    0.2048160000000000 Ti
   0.9953250000000000    0.5602510000000001    0.2634690000000000 Ti
   0.5577520000000000    0.5211030000000000    0.0809820000000000 Ti
   0.6380680000000000    0.5445340000000000    0.7624330000000000 Ti
   0.4846980000000000    0.3685410000000000    0.4551220000000000 Ti
   0.3732310000000000    0.0395640000000000    0.8289420000000000 Ti
   0.8970650000000000    0.4267150000000000    0.5403900000000000 Ti
   0.0856340000000000    0.4301250000000000    0.8011960000000000 Ti
   0.0719700000000000    0.8723020000000000    0.6360080000000000 Ti
   0.1663030000000000    0.1865880000000000    0.0271580000000000 Ti
   0.3048750000000000    0.6539610000000000    0.8109030000000000 Ti
   0.8750220000000000    0.3001760000000000    0.2565930000000000 Ti
   0.2986720000000000    0.2299520000000000    0.6074480000000000 Ti
   0.6044910000000000    0.2223480000000000    0.7356100000000000 Ti
   0.6839090000000000    0.5601390000000001    0.3731690000000000 Ti
   0.9234460000000000    0.0458440000000000    0.1676220000000000 Ti
   0.8301690000000000    0.7670670000000001    0.4862950000000000 Ti
   0.8586040000000000    0.0141670000000000    0.8400580000000000 Ti
   0.3184990000000000    0.9002000000000000    0.3949570000000000 Ti
   0.1051120000000000    0.9040300000000000    0.9596479999999999 Ti
   0.6600290000000000    0.2487680000000000    0.0278980000000000 Ti
   0.2646660000000000    0.6409000000000000    0.2849230000000000 Ti
   0.1632880000000000    0.6138280000000000    0.5681670000000000 Ti
   0.8751989999999999    0.5144870000000000    0.9705180000000000 Ti
   0.6878030000000001    0.7612200000000000    0.9503890000000000 Ti
   0.0089880000000000    0.8739560000000000    0.8252790000000000 O
   0.2866620000000000    0.8036150000000000    0.2571530000000000 O
   0.7945620000000000    0.9485160000000000    0.1995190000000000 O
   0.4985780000000000    0.2662120000000000    0.3208990000000000 O
   0.4763070000000000    0.8931300000000000    0.7974470000000000 O
   0.3074190000000000    0.3974480000000000    0.4909790000000000 O
   0.7917780000000000    0.2208710000000000    0.1347700000000000 O
   0.2267350000000000    0.5392760000000000    0.7173810000000000 O
   0.6454580000000000    0.5830440000000000    0.2109800000000000 O
   0.5719630000000000    0.1244670000000000    0.1040240000000000 O
   0.3385930000000000    0.0680550000000000    0.6674880000000000 O
   0.1872090000000000    0.2100410000000000    0.4850800000000000 O
   0.7740280000000000    0.6015980000000000    0.8396270000000000 O
   0.1670370000000000    0.9369570000000000    0.4969740000000000 O
   0.6982810000000000    0.7478680000000000    0.3721470000000000 O
   0.3237230000000000    0.1286800000000000    0.0638680000000000 O
   0.9371130000000000    0.3732090000000000    0.8653840000000000 O
   0.0594570000000000    0.9236480000000000    0.1353660000000000 O
   0.8610070000000000    0.9223730000000000    0.4684810000000000 O
   0.7464890000000000    0.9020089999999999    0.8663920000000001 O
   0.5333410000000000    0.5288700000000000    0.4557490000000000 O
   0.3744490000000000    0.0372740000000000    0.3110790000000000 O
   0.0066990000000000    0.7350010000000000    0.5673370000000000 O
   0.2347110000000000    0.7777480000000000    0.9307140000000000 O
   0.6971810000000001    0.1128660000000000    0.6108330000000000 O
   0.0317180000000000    0.5646110000000000    0.9130050000000000 O
   0.4472480000000000    0.8562140000000000    0.5036280000000000 O
   0.2049470000000000    0.2876890000000000    0.7471030000000000 O
   0.2689920000000000    0.3119490000000000    0.2304050000000000 O
   0.5574770000000000    0.6368840000000000    0.9527300000000000 O
   0.9145529999999999    0.4617560000000000    0.1519550000000000 O
   0.9367910000000000    0.0542060000000000    0.9802700000000000 O
   0.1826620000000000    0.3509840000000000    0.9870780000000000 O
   0.0297120000000000    0.4720380000000000    0.6284840000000000 O
   0.2081240000000000    0.7638310000000000    0.6820490000000000 O
   0.8667820000000001    0.5759320000000000    0.4258230000000000 O
   0.7085380000000000    0.4226640000000000    0.0180060000000000 O
   0.0400250000000000    0.1914030000000000    0.1566150000000000 O
   0.4804320000000000    0.1594520000000000    0.8379250000000000 O
   0.8859080000000000    0.1384620000000000    0.3431540000000000 O
   0.7450070000000000    0.3836950000000000    0.3635260000000000 O
   0.4838160000000000    0.2678300000000000    0.6002860000000000 O
   0.9301480000000000    0.7179100000000000    0.2503110000000000 O
   0.5971290000000000    0.3878410000000000    0.7888200000000000 O
   0.0006390000000000    0.3703140000000000    0.3646170000000000 O
   0.7291230000000000    0.1724170000000000    0.8678360000000001 O
   0.9451800000000000    0.0296230000000000    0.6675580000000000 O
   0.1929950000000000    0.0428710000000000    0.9031760000000000 O
   0.8219109999999999    0.7001120000000000    0.0407990000000000 O
   0.3971620000000000    0.5427530000000000    0.1994790000000000 O
   0.2914850000000000    0.6677840000000000    0.4593740000000000 O
   0.7361000000000000    0.5019670000000001    0.6132200000000000 O
   0.1296090000000000    0.5481920000000000    0.3930050000000000 O
   0.3339840000000000    0.5340460000000000    0.9332230000000000 O
   0.4843630000000000    0.3606370000000000    0.0586570000000000 O
   0.6967449999999999    0.7773440000000000    0.6215710000000000 O
   0.8827420000000000    0.2641880000000000    0.5730210000000000 O
   0.6142420000000000    0.8271070000000000    0.1028790000000000 O
   0.4789640000000000    0.6518000000000000    0.7159070000000000 O
   0.1638930000000000    0.5605660000000000    0.1602840000000000 O
