Fe4 O6
1.0
   7.6083520000000000    3.7621570000000002   11.9827539999999999
  -1.0379799999999999    2.8737599999999999    4.3978000000000002
  -4.6607760000000003   -4.0786959999999999   -4.7575120000000002
Fe O
4 6
direct
   0.5777450000000000    0.1051400000000000    0.5051580000000000 Fe
   0.4222550000000000    0.8948600000000001    0.4948420000000000 Fe
   0.0725860000000000    0.6051400000000000    0.4948420000000000 Fe
   0.9274140000000000    0.3948600000000000    0.5051580000000000 Fe
   0.2511020000000000    0.9968730000000000    0.9973160000000000 O
   0.2372840000000000    0.2500000000000000    0.4745669999999990 O
   0.7462139999999990    0.5031270000000000    0.9973160000000000 O
   0.7488980000000000    0.0031270000000000    0.0026839999999990 O
   0.7627159999999999    0.7500000000000000    0.5254329999999990 O
   0.2537860000000000    0.4968729999999991    0.0026839999999990 O
