Fe32 O48
1.0
   9.2266139999999996    0.1567550000000000   -0.7212919999999990
   0.2040670000000000   10.2737429999999996    0.3360670000000000
  -0.7165090000000000    0.3024890000000000   10.8549500000000005
Fe O
32 48
direct
   0.4959220000000000    0.0302069999999990    0.8766259999999990 Fe
   0.1799349999999990    0.1292829999999990    0.9962430000000000 Fe
   0.5387640000000000    0.7436410000000000    0.8653660000000000 Fe
   0.0755670000000000    0.5998820000000000    0.5654830000000000 Fe
   0.0357820000000000    0.8821129999999990    0.0644930000000000 Fe
   0.8298930000000000    0.1939560000000000    0.9401010000000000 Fe
   0.2814470000000000    0.0716120000000000    0.5689210000000000 Fe
   0.6973509999999991    0.5506829999999990    0.6572709999999991 Fe
   0.9751390000000000    0.0652630000000000    0.7663519999999990 Fe
   0.7162680000000000    0.7631470000000000    0.4462150000000000 Fe
   0.7242839999999990    0.0323340000000000    0.3848220000000000 Fe
   0.6777989999999990    0.9710749999999990    0.6731960000000000 Fe
   0.3097590000000000    0.6278549999999991    0.0583400000000000 Fe
   0.1820429999999990    0.9473940000000000    0.3265639999999990 Fe
   0.0056939999999990    0.3620800000000000    0.1871920000000000 Fe
   0.0187060000000000    0.3851969999999990    0.7561549999999990 Fe
   0.9230419999999990    0.6774160000000000    0.2346790000000000 Fe
   0.8547000000000000    0.5434200000000000    0.9713919999999990 Fe
   0.3315659999999990    0.3238820000000000    0.2010279999999990 Fe
   0.3463940000000000    0.2717790000000000    0.7511300000000001 Fe
   0.4315139999999990    0.9199069999999990    0.1925919999999990 Fe
   0.8393760000000000    0.4737960000000000    0.4349969999999990 Fe
   0.3658070000000000    0.5495810000000000    0.7302879999999990 Fe
   0.5962160000000000    0.3943730000000000    0.9506049999999990 Fe
   0.5727130000000000    0.1780709999999990    0.1246009999999990 Fe
   0.7540209999999991    0.9435659999999991    0.1360400000000000 Fe
   0.0315420000000000    0.8930900000000001    0.5853729999999990 Fe
   0.4083850000000000    0.7583489999999991    0.5142519999999990 Fe
   0.1919360000000000    0.8008540000000000    0.8465530000000000 Fe
   0.1096210000000000    0.2927420000000000    0.4450610000000000 Fe
   0.6300000000000000    0.2433020000000000    0.6311650000000000 Fe
   0.5245750000000000    0.6250629999999990    0.2700680000000000 Fe
   0.3297900000000000    0.1565649999999990    0.8939670000000000 O
   0.2847880000000000    0.6057230000000000    0.5638639999999990 O
   0.9810810000000000    0.5441020000000000    0.1266950000000000 O
   0.5451319999999999    0.6414839999999991    0.4461000000000000 O
   0.4380480000000000    0.1558220000000000    0.2410610000000000 O
   0.2399600000000000    0.8893139999999990    0.5271990000000000 O
   0.8244140000000000    0.3580450000000000    0.0264930000000000 O
   0.9132800000000001    0.3355680000000000    0.3398500000000000 O
   0.8665180000000000    0.5007509999999999    0.7981640000000000 O
   0.5908650000000000    0.8648509999999990    0.5449649999999990 O
   0.6508480000000000    0.5806930000000000    0.9478829999999990 O
   0.8959809999999990    0.0404319999999990    0.0419169999999990 O
   0.3694090000000000    0.5188460000000000    0.2055860000000000 O
   0.1613689999999990    0.1119759999999990    0.4018410000000000 O
   0.4882180000000000    0.3552249999999990    0.0800610000000000 O
   0.1532919999999990    0.2809530000000000    0.0908300000000000 O
   0.0199330000000000    0.2259489999999990    0.8625100000000001 O
   0.1323929999999990    0.7267330000000000    0.0019320000000000 O
   0.2193060000000000    0.4239850000000000    0.7790530000000000 O
   0.8813749999999990    0.9179830000000000    0.6974319999999991 O
   0.7532690000000000    0.1120650000000000    0.2291369999999990 O
   0.4785160000000000    0.1081890000000000    0.6921590000000000 O
   0.6736139999999990    0.1168569999999990    0.5219969999999990 O
   0.3539210000000000    0.6342960000000000    0.8869469999999990 O
   0.8331989999999990    0.6308659999999990    0.5607880000000000 O
   0.8763559999999990    0.8956029999999990    0.4476719999999990 O
   0.0089059999999990    0.5965200000000001    0.3947610000000000 O
   0.6955049999999990    0.4003649999999990    0.5579860000000000 O
   0.3609670000000000    0.8424680000000000    0.3375300000000001 O
   0.7754709999999990    0.1534740000000000    0.7581059999999999 O
   0.1033019999999990    0.0617700000000000    0.6456350000000000 O
   0.0107400000000000    0.4086150000000000    0.5759839999999991 O
   0.7380970000000000    0.6051160000000000    0.2964580000000000 O
   0.6441110000000000    0.8833569999999999    0.2872909999999990 O
   0.0984770000000000    0.7344619999999999    0.6920510000000000 O
   0.6220059999999999    0.1983000000000000    0.9438460000000000 O
   0.4551960000000000    0.7447880000000000    0.1241289999999990 O
   0.2773650000000000    0.2640510000000000    0.5774180000000000 O
   0.5123800000000001    0.3921030000000000    0.7630129999999991 O
   0.1885140000000000    0.3693229999999990    0.3087510000000000 O
   0.6467530000000000    0.8995489999999990    0.8390090000000000 O
   0.0365150000000000    0.8399260000000000    0.2477100000000000 O
   0.3746609999999990    0.8798990000000000    0.8411149999999999 O
   0.2209350000000000    0.9892080000000000    0.1373770000000000 O
   0.8353849999999990    0.7854030000000000    0.0811289999999990 O
   0.5464890000000000    0.9945250000000000    0.0635589999999990 O
   0.0996500000000000    0.9662550000000000    0.9031819999999990 O
   0.5353749999999990    0.6616909999999990    0.7021529999999990 O
