Fe64 O96
1.0
   8.5252160000000003    0.0000000000000000    0.0000000000000000
   0.0000000000000000    8.5252160000000003    0.0000000000000000
   0.0000000000000000    0.0000000000000000   25.5930159999999987
Fe O
64 96
direct
   0.2473850000000000    0.5134150000000000    0.7107990000000000 Fe
   0.7526149999999990    0.4865850000000000    0.2107990000000000 Fe
   0.0134150000000000    0.2526150000000000    0.4607989999999990 Fe
   0.9865849999999990    0.7473850000000000    0.9607990000000000 Fe
   0.4865850000000000    0.7526149999999990    0.7892009999999990 Fe
   0.5134150000000000    0.2473850000000000    0.2892010000000000 Fe
   0.2526150000000000    0.0134150000000000    0.5392009999999990 Fe
   0.7473850000000000    0.9865849999999990    0.0392010000000000 Fe
   0.7573710000000000    0.4987200000000001    0.5439649999999990 Fe
   0.2426289999999990    0.5012800000000001    0.0439650000000000 Fe
   0.9987200000000001    0.7426290000000000    0.2939650000000000 Fe
   0.0012800000000000    0.2573709999999990    0.7939649999999990 Fe
   0.5012800000000001    0.2426289999999990    0.9560350000000000 Fe
   0.4987200000000001    0.7573710000000000    0.4560349999999990 Fe
   0.7426290000000000    0.9987200000000001    0.7060350000000000 Fe
   0.2573709999999990    0.0012800000000000    0.2060350000000000 Fe
   0.9935140000000000    0.7413280000000000    0.6261990000000000 Fe
   0.0064860000000000    0.2586720000000000    0.1261990000000000 Fe
   0.2413280000000000    0.5064860000000000    0.3761990000000000 Fe
   0.7586720000000000    0.4935139999999991    0.8761990000000000 Fe
   0.2586720000000000    0.0064860000000000    0.8738009999999991 Fe
   0.7413280000000000    0.9935140000000000    0.3738010000000000 Fe
   0.5064860000000000    0.2413280000000000    0.6238009999999991 Fe
   0.4935139999999991    0.7586720000000000    0.1238010000000000 Fe
   0.1104030000000000    0.8895970000000000    0.7500000000000000 Fe
   0.8895970000000000    0.1104030000000000    0.2500000000000000 Fe
   0.3895969999999990    0.3895969999999990    0.5000000000000000 Fe
   0.6104029999999990    0.6104029999999990    0.0000000000000000 Fe
   0.8845419999999991    0.1212989999999990    0.5859409999999990 Fe
   0.1154579999999990    0.8787010000000000    0.0859409999999990 Fe
   0.6212989999999990    0.6154579999999999    0.3359410000000000 Fe
   0.3787010000000000    0.3845420000000000    0.8359409999999990 Fe
   0.8787010000000000    0.1154579999999990    0.9140590000000000 Fe
   0.1212989999999990    0.8845419999999991    0.4140589999999990 Fe
   0.6154579999999999    0.6212989999999990    0.6640590000000000 Fe
   0.3845420000000000    0.3787010000000000    0.1640589999999990 Fe
   0.8855060000000000    0.3688950000000000    0.6686780000000000 Fe
   0.1144940000000000    0.6311049999999990    0.1686780000000000 Fe
   0.8688950000000000    0.6144940000000000    0.4186780000000000 Fe
   0.1311050000000000    0.3855059999999990    0.9186780000000000 Fe
   0.6311049999999990    0.1144940000000000    0.8313220000000000 Fe
   0.3688950000000000    0.8855060000000000    0.3313220000000000 Fe
   0.6144940000000000    0.8688950000000000    0.5813220000000000 Fe
   0.3855059999999990    0.1311050000000000    0.0813219999999990 Fe
   0.3567070000000000    0.8760260000000000    0.6619750000000000 Fe
   0.6432930000000000    0.1239740000000000    0.1619749999999990 Fe
   0.3760259999999990    0.1432930000000000    0.4119750000000000 Fe
   0.6239739999999990    0.8567070000000000    0.9119750000000000 Fe
   0.1239740000000000    0.6432930000000000    0.8380249999999990 Fe
   0.8760260000000000    0.3567070000000000    0.3380249999999990 Fe
   0.1432930000000000    0.3760259999999990    0.5880250000000000 Fe
   0.8567070000000000    0.6239739999999990    0.0880249999999990 Fe
   0.3633730000000000    0.1305140000000000    0.7463770000000000 Fe
   0.6366269999999991    0.8694860000000000    0.2463769999999990 Fe
   0.6305140000000000    0.1366270000000000    0.4963769999999990 Fe
   0.3694860000000000    0.8633729999999999    0.9963770000000000 Fe
   0.8694860000000000    0.6366269999999991    0.7536229999999990 Fe
   0.1305140000000000    0.3633730000000000    0.2536230000000000 Fe
   0.1366270000000000    0.6305140000000000    0.5036229999999990 Fe
   0.8633729999999999    0.3694860000000000    0.0036230000000000 Fe
   0.6244370000000000    0.3755630000000000    0.7500000000000000 Fe
   0.3755630000000000    0.6244370000000000    0.2500000000000000 Fe
   0.8755630000000000    0.8755630000000000    0.5000000000000000 Fe
   0.1244369999999990    0.1244369999999990    0.0000000000000000 Fe
   0.1089980000000000    0.6404820000000000    0.7551960000000000 O
   0.8910020000000000    0.3595180000000000    0.2551960000000000 O
   0.1404820000000000    0.3910019999999990    0.5051960000000000 O
   0.8595180000000000    0.6089979999999990    0.0051960000000000 O
   0.3595180000000000    0.8910020000000000    0.7448040000000000 O
   0.6404820000000000    0.1089980000000000    0.2448040000000000 O
   0.3910019999999990    0.1404820000000000    0.4948039999999990 O
   0.6089979999999990    0.8595180000000000    0.9948039999999990 O
   0.8594630000000000    0.6115039999999990    0.6716110000000000 O
   0.1405370000000000    0.3884960000000000    0.1716109999999990 O
   0.1115039999999990    0.6405370000000000    0.4216109999999990 O
   0.8884960000000000    0.3594630000000000    0.9216110000000000 O
   0.3884960000000000    0.1405370000000000    0.8283889999999990 O
   0.6115039999999990    0.8594630000000000    0.3283890000000000 O
   0.6405370000000000    0.1115039999999990    0.5783889999999990 O
   0.3594630000000000    0.8884960000000000    0.0783890000000000 O
   0.8862040000000000    0.3623240000000000    0.5880020000000000 O
   0.1137960000000000    0.6376760000000000    0.0880020000000000 O
   0.8623240000000000    0.6137960000000000    0.3380019999999990 O
   0.1376760000000000    0.3862040000000000    0.8380019999999990 O
   0.6376760000000000    0.1137960000000000    0.9119980000000000 O
   0.3623240000000000    0.8862040000000000    0.4119980000000000 O
   0.6137960000000000    0.8623240000000000    0.6619980000000000 O
   0.3862040000000000    0.1376760000000000    0.1619980000000000 O
   0.6172839999999991    0.1352769999999990    0.7523540000000000 O
   0.3827160000000000    0.8647229999999990    0.2523539999999990 O
   0.6352770000000000    0.8827159999999999    0.5023540000000000 O
   0.3647229999999990    0.1172840000000000    0.0023539999999990 O
   0.8647229999999990    0.3827160000000000    0.7476459999999990 O
   0.1352769999999990    0.6172839999999991    0.2476459999999990 O
   0.8827159999999999    0.6352770000000000    0.4976460000000000 O
   0.1172840000000000    0.3647229999999990    0.9976459999999990 O
   0.3925500000000000    0.1118379999999990    0.6700940000000000 O
   0.6074500000000000    0.8881620000000000    0.1700940000000000 O
   0.6118380000000000    0.1074500000000000    0.4200939999999990 O
   0.3881620000000000    0.8925500000000001    0.9200940000000000 O
   0.8881620000000000    0.6074500000000000    0.8299059999999990 O
   0.1118379999999990    0.3925500000000000    0.3299060000000000 O
   0.1074500000000000    0.6118380000000000    0.5799059999999990 O
   0.8925500000000001    0.3881620000000000    0.0799059999999990 O
   0.3832080000000000    0.8938619999999990    0.5843260000000000 O
   0.6167920000000000    0.1061380000000000    0.0843260000000000 O
   0.3938620000000000    0.1167919999999990    0.3343260000000000 O
   0.6061380000000000    0.8832080000000000    0.8343260000000000 O
   0.1061380000000000    0.6167920000000000    0.9156740000000000 O
   0.8938619999999990    0.3832080000000000    0.4156740000000000 O
   0.1167919999999990    0.3938620000000000    0.6656740000000000 O
   0.8832080000000000    0.6061380000000000    0.1656740000000000 O
   0.8785729999999990    0.8684250000000000    0.7453400000000000 O
   0.1214270000000000    0.1315750000000000    0.2453400000000000 O
   0.3684250000000000    0.6214270000000000    0.4953400000000001 O
   0.6315750000000000    0.3785730000000000    0.9953400000000001 O
   0.1315750000000000    0.1214270000000000    0.7546600000000001 O
   0.8684250000000000    0.8785729999999990    0.2546600000000000 O
   0.6214270000000000    0.3684250000000000    0.5046600000000000 O
   0.3785730000000000    0.6315750000000000    0.0046600000000000 O
   0.6319709999999999    0.3830260000000000    0.6698000000000001 O
   0.3680290000000000    0.6169740000000000    0.1698000000000000 O
   0.8830260000000000    0.8680289999999991    0.4198000000000000 O
   0.1169740000000000    0.1319710000000000    0.9198000000000001 O
   0.6169740000000000    0.3680290000000000    0.8302000000000000 O
   0.3830260000000000    0.6319709999999999    0.3302000000000000 O
   0.8680289999999991    0.8830260000000000    0.5802000000000000 O
   0.1319710000000000    0.1169740000000000    0.0802000000000000 O
   0.1132130000000000    0.1404310000000000    0.5775319999999990 O
   0.8867870000000000    0.8595689999999990    0.0775319999999990 O
   0.6404310000000000    0.3867870000000000    0.3275320000000000 O
   0.3595689999999990    0.6132130000000000    0.8275319999999990 O
   0.8595689999999990    0.8867870000000000    0.9224680000000000 O
   0.1404310000000000    0.1132130000000000    0.4224679999999990 O
   0.3867870000000000    0.6404310000000000    0.6724680000000000 O
   0.6132130000000000    0.3595689999999990    0.1724679999999990 O
   0.8582949999999990    0.1367120000000000    0.6630929999999990 O
   0.1417050000000000    0.8632879999999991    0.1630930000000000 O
   0.6367119999999999    0.6417050000000000    0.4130930000000000 O
   0.3632880000000000    0.3582950000000000    0.9130929999999990 O
   0.8632879999999991    0.1417050000000000    0.8369070000000000 O
   0.1367120000000000    0.8582949999999990    0.3369070000000000 O
   0.6417050000000000    0.6367119999999999    0.5869070000000000 O
   0.3582950000000000    0.3632880000000000    0.0869070000000000 O
   0.1288060000000000    0.8586290000000000    0.6698330000000000 O
   0.8711939999999990    0.1413710000000000    0.1698329999999990 O
   0.3586290000000000    0.3711939999999990    0.4198329999999990 O
   0.6413710000000000    0.6288060000000000    0.9198330000000000 O
   0.1413710000000000    0.8711939999999990    0.8301670000000000 O
   0.8586290000000000    0.1288060000000000    0.3301670000000000 O
   0.3711939999999990    0.3586290000000000    0.5801670000000000 O
   0.6288060000000000    0.6413710000000000    0.0801670000000000 O
   0.6313240000000000    0.6165740000000000    0.7480850000000000 O
   0.3686760000000000    0.3834260000000000    0.2480850000000000 O
   0.1165740000000000    0.8686760000000000    0.4980850000000000 O
   0.8834259999999990    0.1313240000000000    0.9980850000000000 O
   0.3834260000000000    0.3686760000000000    0.7519150000000000 O
   0.6165740000000000    0.6313240000000000    0.2519150000000000 O
   0.8686760000000000    0.1165740000000000    0.5019150000000000 O
   0.1313240000000000    0.8834259999999990    0.0019149999999990 O
