Ti30 O60
1.0
  10.4132420000000003   -0.3554250000000000    0.0260050000000000
  -0.3532190000000000    9.8586299999999998   -0.0173890000000000
   0.0313370000000000   -0.0215550000000000   10.4377379999999995
Ti O
30 60
direct
   0.3616830000000000    0.2827480000000000    0.3335420000000000 Ti
   0.7509770000000000    0.0460820000000000    0.5441030000000000 Ti
   0.5352749999999999    0.7400480000000000    0.4828540000000000 Ti
   0.8119790000000000    0.7765450000000000    0.2825750000000000 Ti
   0.3333980000000000    0.4932570000000000    0.1141890000000000 Ti
   0.5593920000000000    0.9933510000000000    0.2196670000000000 Ti
   0.0369570000000000    0.5437080000000000    0.2805910000000000 Ti
   0.5815350000000000    0.5332880000000000    0.9118820000000000 Ti
   0.7944270000000000    0.5659560000000000    0.6343030000000000 Ti
   0.5815439999999999    0.3293650000000000    0.6241120000000000 Ti
   0.2979870000000000    0.1121830000000000    0.1109030000000000 Ti
   0.0193760000000000    0.3465600000000000    0.5369790000000000 Ti
   0.1323870000000000    0.4612060000000000    0.8319560000000000 Ti
   0.2423260000000000    0.8531290000000000    0.7114890000000000 Ti
   0.9951680000000001    0.2263430000000000    0.0632320000000000 Ti
   0.4274860000000000    0.8067170000000000    0.9483660000000000 Ti
   0.8054740000000000    0.2464160000000000    0.3364270000000000 Ti
   0.2552760000000000    0.2094120000000000    0.5999210000000000 Ti
   0.4352980000000000    0.1079140000000000    0.8083110000000000 Ti
   0.5987250000000000    0.4681770000000000    0.3582320000000000 Ti
   0.7842930000000000    0.9472840000000000    0.0346270000000000 Ti
   0.9910620000000000    0.8144600000000000    0.4977870000000000 Ti
   0.9853160000000000    0.0993980000000000    0.7908980000000000 Ti
   0.3100750000000000    0.9420420000000000    0.4136500000000000 Ti
   0.0574820000000000    0.7890060000000000    0.9341290000000000 Ti
   0.6370960000000000    0.2630550000000000    0.0335720000000000 Ti
   0.0852890000000000    0.9139190000000000    0.2269600000000000 Ti
   0.2549070000000000    0.5636130000000000    0.5680260000000000 Ti
   0.8768730000000000    0.5236910000000000    0.0321730000000000 Ti
   0.6598080000000000    0.8035630000000000    0.7441850000000000 Ti
   0.0795390000000000    0.9675720000000000    0.8480450000000000 O
   0.0207040000000000    0.7415750000000000    0.3264850000000000 O
   0.6822710000000000    0.8528490000000000    0.1834140000000000 O
   0.6875329999999999    0.0939710000000000    0.3716630000000000 O
   0.2585080000000000    0.8058390000000000    0.8929480000000000 O
   0.4118150000000000    0.2667370000000000    0.6947350000000000 O
   0.6773979999999999    0.0984960000000000    0.1111260000000000 O
   0.2526290000000000    0.4597470000000000    0.9468839999999999 O
   0.7190770000000000    0.5993610000000000    0.9948560000000000 O
   0.4545190000000000    0.1551320000000000    0.2225510000000000 O
   0.4571920000000000    0.9234310000000000    0.7936460000000000 O
   0.1963370000000000    0.3952840000000000    0.6593970000000000 O
   0.6423260000000000    0.4452180000000000    0.7627760000000000 O
   0.2154350000000000    0.3038690000000000    0.4393140000000000 O
   0.6458130000000000    0.6634940000000000    0.3572240000000000 O
   0.1097860000000000    0.0903720000000000    0.1140990000000000 O
   0.9336040000000000    0.4356650000000000    0.6560700000000000 O
   0.8981970000000000    0.8189590000000000    0.9754159999999999 O
   0.8410310000000000    0.8909660000000000    0.4405190000000000 O
   0.6770620000000001    0.8954290000000000    0.9072970000000000 O
   0.4931700000000000    0.3345380000000000    0.4566640000000000 O
   0.3500420000000000    0.1150570000000000    0.4585970000000000 O
   0.1204310000000000    0.9440150000000000    0.4168060000000000 O
   0.1150240000000000    0.7952710000000000    0.0974080000000000 O
   0.6471130000000000    0.1706090000000000    0.6292870000000000 O
   0.0118500000000000    0.5875070000000000    0.9102730000000000 O
   0.4803350000000000    0.8850170000000001    0.3597740000000000 O
   0.0766140000000000    0.1759550000000000    0.6365550000000000 O
   0.2712040000000000    0.2903740000000000    0.1681640000000000 O
   0.5232140000000000    0.6884860000000000    0.8304640000000000 O
   0.0009260000000000    0.4189920000000000    0.1197450000000000 O
   0.8907090000000000    0.0984800000000000    0.9602650000000000 O
   0.0480400000000000    0.2857070000000000    0.8791770000000000 O
   0.2164090000000000    0.6313850000000000    0.7253700000000000 O
   0.0772470000000000    0.8238090000000000    0.6503510000000000 O
   0.8839750000000000    0.6506720000000000    0.5094480000000000 O
   0.7922940000000001    0.3513930000000000    0.9940170000000000 O
   0.9012170000000000    0.1875440000000000    0.2090360000000000 O
   0.3237070000000000    0.1290850000000000    0.9399280000000000 O
   0.9073470000000000    0.9202020000000000    0.1954960000000000 O
   0.6890020000000000    0.3631920000000000    0.2513330000000000 O
   0.2785900000000000    0.0412450000000000    0.6857740000000000 O
   0.8726460000000000    0.6115320000000000    0.1971280000000000 O
   0.7033140000000000    0.4318730000000000    0.5102250000000000 O
   0.9519210000000000    0.3970840000000000    0.3699380000000000 O
   0.5831809999999999    0.1771680000000000    0.8874480000000000 O
   0.8533420000000000    0.0176320000000000    0.6921900000000000 O
   0.4546880000000000    0.9362480000000000    0.0781200000000000 O
   0.8048710000000000    0.7095070000000000    0.7535809999999999 O
   0.4400570000000000    0.4547240000000000    0.2631600000000000 O
   0.3179140000000000    0.8083190000000000    0.5482180000000000 O
   0.6271710000000000    0.6573280000000000    0.6087190000000000 O
   0.1188160000000000    0.5534430000000000    0.4638880000000000 O
   0.4270970000000000    0.6455630000000000    0.0509770000000000 O
   0.5109420000000000    0.3944720000000000    0.0193690000000000 O
   0.6228240000000000    0.9006810000000000    0.5881210000000000 O
   0.8797820000000000    0.2006540000000000    0.4972970000000000 O
   0.2705210000000000    0.9636120000000000    0.2360260000000000 O
   0.4176880000000000    0.5906090000000001    0.4895520000000000 O
   0.2019760000000000    0.5560410000000000    0.2092570000000000 O
