Fe16 O24
1.0
   3.0039289999999998    5.1827269999999999    0.0000000000000000
  -3.0039289999999998    5.1827269999999999    0.0000000000000000
   0.0000000000000000    0.1316060000000000   14.6086309999999990
Fe O
16 24
direct
   0.3397650000000000    0.3397650000000000    0.0504680000000000 Fe
   0.9921949999999990    0.9921949999999990    0.0100109999999990 Fe
   0.8332379999999990    0.3351369999999990    0.1644430000000000 Fe
   0.0069060000000000    0.0069060000000000    0.3639670000000000 Fe
   0.3351369999999990    0.8332379999999990    0.1644430000000000 Fe
   0.6739450000000000    0.6739450000000000    0.3211630000000000 Fe
   0.5028870000000000    0.9964379999999990    0.4985719999999990 Fe
   0.9964379999999990    0.5028870000000000    0.4985719999999990 Fe
   0.3336210000000000    0.3336210000000000    0.6762300000000000 Fe
   0.1688400000000000    0.6597550000000000    0.8341520000000000 Fe
   0.3294450000000000    0.3294450000000000    0.2842540000000000 Fe
   0.6597550000000000    0.1688400000000000    0.8341520000000000 Fe
   0.5025640000000000    0.5025640000000000    0.4985830000000000 Fe
   0.9989629999999990    0.9989629999999990    0.6277300000000000 Fe
   0.1692530000000000    0.1692530000000000    0.8346009999999990 Fe
   0.6600150000000000    0.6600150000000000    0.9607900000000000 Fe
   0.6863420000000000    0.1835649999999990    0.0860819999999990 O
   0.1835649999999990    0.6863420000000000    0.0860819999999990 O
   0.0144739999999990    0.0144739999999990    0.2372949999999990 O
   0.1573860000000000    0.1573860000000000    0.0889420000000000 O
   0.3544069999999990    0.8225350000000000    0.4153349999999990 O
   0.5101700000000000    0.5101700000000000    0.2433620000000000 O
   0.4805680000000000    0.9832240000000000    0.2475129999999990 O
   0.6513380000000000    0.6513380000000000    0.0917240000000000 O
   0.6673770000000000    0.6673770000000000    0.5624209999999999 O
   0.8225350000000000    0.3544069999999990    0.4153349999999990 O
   0.8273159999999991    0.8273159999999991    0.4120129999999990 O
   0.9832240000000000    0.4805680000000000    0.2475129999999990 O
   0.1755630000000000    0.1755630000000000    0.5791470000000000 O
   0.0362570000000000    0.4820890000000000    0.7587809999999990 O
   0.1752900000000000    0.6478640000000000    0.5791480000000000 O
   0.3334650000000000    0.3334650000000000    0.4218039999999990 O
   0.3333210000000000    0.3333210000000000    0.9169500000000000 O
   0.4820890000000000    0.0362570000000000    0.7587809999999990 O
   0.4819150000000000    0.4819150000000000    0.7584210000000000 O
   0.6478640000000000    0.1752900000000000    0.5791480000000000 O
   0.8413229999999990    0.8413229999999990    0.9214739999999990 O
   0.9990410000000000    0.9990410000000000    0.7590850000000000 O
   0.8464170000000000    0.3058030000000000    0.9182560000000000 O
   0.3058030000000000    0.8464170000000000    0.9182560000000000 O
