Fe32 O48
1.0
  10.0071010000000005   -0.4722559999999990   -0.2806770000000000
  -0.5253479999999990   10.8062590000000007   -0.0861820000000000
  -0.2971149999999990   -0.0863429999999990    9.8163629999999991
Fe O
32 48
direct
   0.4144660000000000    0.7247230000000000    0.8755120000000000 Fe
   0.5654080000000000    0.0468009999999990    0.6877350000000000 Fe
   0.6970540000000000    0.8333860000000000    0.8197869999999990 Fe
   0.9203709999999991    0.1628590000000000    0.4644740000000000 Fe
   0.4873550000000000    0.3958919999999990    0.2268720000000000 Fe
   0.4269119999999990    0.4514519999999990    0.5188370000000000 Fe
   0.4646720000000000    0.9620850000000000    0.0370660000000000 Fe
   0.6317550000000000    0.5363430000000000    0.0212230000000000 Fe
   0.0867300000000000    0.7019040000000000    0.4840470000000000 Fe
   0.1776750000000000    0.5134179999999990    0.6869769999999999 Fe
   0.8772820000000000    0.7433470000000000    0.2241490000000000 Fe
   0.3231580000000000    0.2502200000000000    0.7197049999999990 Fe
   0.6919670000000000    0.3284640000000000    0.7041000000000001 Fe
   0.1671840000000000    0.2902200000000000    0.3448020000000000 Fe
   0.2605300000000000    0.4808070000000000    0.9813830000000000 Fe
   0.2275549999999990    0.9533670000000000    0.7349770000000000 Fe
   0.9181849999999990    0.1157950000000000    0.7610770000000000 Fe
   0.6839170000000000    0.5902240000000000    0.7024960000000000 Fe
   0.4165569999999990    0.7459970000000000    0.5591680000000000 Fe
   0.1716450000000000    0.1754580000000000    0.9544710000000000 Fe
   0.6043069999999990    0.6753979999999991    0.3253010000000000 Fe
   0.0455100000000000    0.5193679999999991    0.2212279999999990 Fe
   0.2884330000000000    0.7616210000000000    0.2252900000000000 Fe
   0.6086090000000000    0.1102710000000000    0.3283280000000000 Fe
   0.7624569999999991    0.0076060000000000    0.0511029999999990 Fe
   0.9868400000000001    0.8538950000000000    0.9710179999999990 Fe
   0.8138789999999990    0.3060920000000000    0.1696550000000000 Fe
   0.9108719999999990    0.4487830000000000    0.4993979999999991 Fe
   0.1437590000000000    0.9570149999999999    0.3890679999999990 Fe
   0.3199160000000000    0.1215469999999990    0.2013930000000000 Fe
   0.9296860000000000    0.5277029999999990    0.9245920000000000 Fe
   0.7892370000000000    0.8619509999999990    0.5589440000000000 Fe
   0.7440249999999990    0.4615660000000000    0.5824420000000000 O
   0.8968079999999991    0.9074010000000000    0.1358160000000000 O
   0.5137480000000000    0.6073510000000000    0.6096320000000000 O
   0.7234459999999990    0.1655530000000000    0.7504339999999990 O
   0.0069630000000000    0.3733070000000000    0.3415470000000000 O
   0.7851560000000000    0.2008190000000000    0.3293750000000000 O
   0.3693860000000000    0.8277340000000000    0.7262750000000000 O
   0.3840590000000000    0.0839849999999990    0.7159570000000000 O
   0.1996139999999990    0.5758510000000000    0.1374070000000000 O
   0.0143690000000000    0.5746200000000000    0.6095419999999990 O
   0.4801229999999990    0.2172009999999990    0.2600150000000000 O
   0.5986300000000000    0.9604860000000000    0.9043909999999999 O
   0.1417189999999990    0.8792570000000000    0.8849389999999990 O
   0.9270790000000000    0.2889270000000000    0.5993760000000000 O
   0.5016330000000000    0.3360160000000000    0.6585200000000001 O
   0.2467629999999990    0.3713720000000000    0.5985889999999990 O
   0.1369820000000000    0.1150230000000000    0.7591920000000000 O
   0.9857309999999990    0.1900400000000000    0.9301700000000001 O
   0.7381310000000000    0.4752269999999990    0.8541080000000000 O
   0.6115780000000000    0.9980239999999990    0.1729100000000000 O
   0.3006700000000000    0.9697500000000001    0.2924080000000000 O
   0.9259290000000000    0.4353180000000000    0.0873610000000000 O
   0.8878539999999990    0.0211489999999990    0.5801569999999990 O
   0.0882589999999990    0.7939250000000000    0.3024060000000000 O
   0.6582249999999999    0.3894559999999990    0.1323679999999990 O
   0.8100000000000001    0.7363090000000000    0.6999759999999990 O
   0.3281090000000000    0.3929020000000000    0.3470649999999990 O
   0.5750120000000000    0.0780469999999990    0.5028150000000000 O
   0.9364060000000000    0.6848660000000000    0.0241370000000000 O
   0.3915160000000000    0.7958280000000000    0.0487280000000000 O
   0.8216270000000000    0.1745420000000000    0.0470840000000000 O
   0.2873130000000000    0.3153729999999990    0.8975949999999990 O
   0.6031879999999999    0.6781779999999999    0.8766349999999991 O
   0.1398430000000000    0.8746619999999991    0.5611539999999990 O
   0.8557739999999990    0.9506890000000000    0.8707889999999990 O
   0.4490619999999990    0.7549739999999990    0.3663960000000000 O
   0.0966409999999990    0.1267410000000000    0.4064000000000000 O
   0.0845200000000000    0.4752490000000000    0.8585149999999990 O
   0.1841720000000000    0.2282940000000000    0.1583169999999990 O
   0.7685369999999990    0.7838950000000000    0.3876890000000000 O
   0.3276219999999990    0.0725180000000000    0.0156980000000000 O
   0.9414979999999999    0.6000240000000000    0.3494460000000000 O
   0.2528100000000000    0.6301230000000000    0.5286310000000000 O
   0.6184010000000000    0.8761129999999990    0.6410629999999991 O
   0.4468800000000001    0.5001090000000000    0.0695790000000000 O
   0.3178650000000000    0.5746209999999990    0.8240240000000000 O
   0.6958460000000000    0.6625400000000000    0.1598270000000000 O
   0.5613130000000000    0.5060510000000000    0.3735360000000000 O
